Point ID,area,equilibrium_x,equilibrium_y,equilibrium_z,lambda_equilibrium_x,lambda_equilibrium_y,lambda_equilibrium_z,lambda_stress_disp_xx,lambda_stress_disp_xy,lambda_stress_disp_xz,lambda_stress_disp_yy,lambda_stress_disp_yz,lambda_stress_disp_zz,Points_0,Points_1,Points_2,Points_Magnitude,pred_equilibrium_x,pred_equilibrium_y,pred_equilibrium_z,pred_stress_disp_xx,pred_stress_disp_xy,pred_stress_disp_xz,pred_stress_disp_yy,pred_stress_disp_yz,pred_stress_disp_zz,sdf,sigma_xx,sigma_xx__x,sigma_xy,sigma_xy__x,sigma_xy__y,sigma_xz,sigma_xz__x,sigma_xz__z,sigma_yy,sigma_yy__y,sigma_yz,sigma_yz__y,sigma_yz__z,sigma_zz,sigma_zz__z,stress_disp_xx,stress_disp_xy,stress_disp_xz,stress_disp_yy,stress_disp_yz,stress_disp_zz,true_equilibrium_x,true_equilibrium_y,true_equilibrium_z,true_stress_disp_xx,true_stress_disp_xy,true_stress_disp_xz,true_stress_disp_yy,true_stress_disp_yz,true_stress_disp_zz,u,u__x,u__y,u__z,v,v__x,v__y,v__z,w,w__x,w__y,w__z
0,0.000344161,-0.251486,0.163675,0.784635,0.0523944,0.0523944,0.0523944,0.0523944,0.0523944,0.0523944,0.0523944,0.0523944,0.0523944,0.917834,0.212447,0.0476056,0.943302,-0.251486,0.163675,0.784635,0.0433094,0.028164,-0.0032196,0.214873,-0.0617738,0.0451969,0.0523944,0.398837,-4.83947,-0.826593,3.68756,-2.5072,-0.486273,-5.41339,7.59816,-2.39261,4.4764,0.693304,2.85172,-8.32764,0.203037,1.77704,0.0433094,0.028164,-0.0032196,0.214873,-0.0617738,0.0451969,0,0,0,0,0,0,0,0,0,0.0467506,0.00392691,-0.00718095,1.00623,-0.00304939,-0.000803337,-0.0091725,-0.049126,-0.833493,-1.01112,0.0554413,0.00295735
1,0.000344161,0.0713596,0.00862296,0.173197,0.0162903,0.0162903,0.0162903,0.0162903,0.0162903,0.0162903,0.0162903,0.0162903,0.0162903,-0.0352606,0.98371,-0.0591624,0.986118,0.0713596,0.00862296,0.173197,0.000863552,0.0306438,0.171513,-0.0252752,0.0205011,-0.0286193,0.0162903,-11.8661,-8.0123,0.177191,0.220911,-11.2126,1.0463,-1.45051,19.1536,0.00164795,-0.00139023,0.00278772,0.775431,-0.228144,-0.0203457,0.501885,0.000863552,0.0306438,0.171513,-0.0252752,0.0205011,-0.0286193,0,0,0,0,0,0,0,0,0,-0.0218152,-0.0455518,-0.00375814,0.353709,0.00370298,0.00583649,0.0136563,-0.0684933,-0.0926947,-0.341531,0.0687262,0.0135296
2,0.000344161,-0.746264,-0.201733,3.36342,0.00825152,0.00825152,0.00825152,0.00825152,0.00825152,0.00825152,0.00825152,0.00825152,0.00825152,0.915677,-0.68779,0.0917485,1.14889,-0.746264,-0.201733,3.36342,-0.26021,0.306378,-0.0799561,0.260246,0.110022,0.249635,0.00825152,2.52909,-24.5223,1.24415,-9.53139,3.75737,-0.170735,0.228375,21.5112,-0.876811,-4.68286,-0.119069,-0.357932,14.416,0.1475,-3.23387,-0.26021,0.306378,-0.0799561,0.260246,0.110022,0.249635,0,0,0,0,0,0,0,0,0,0.08483,0.00897966,0.0104616,0.937211,0.00921699,0.00504371,-0.00544757,0.118085,-0.785255,-0.939718,-0.118175,-0.00037908
3,0.000344161,-0.0283775,-0.0766026,0.329175,0.0186111,0.0186111,0.0186111,0.0186111,0.0186111,0.0186111,0.0186111,0.0186111,0.0186111,-0.0243068,0.918891,-0.0813889,0.922809,-0.0283775,-0.0766026,0.329175,0.0878839,-0.0544098,0.00377655,-0.00281763,0.012732,-0.0419993,0.0186111,-16.6613,-11.3807,0.977152,1.52796,-5.56213,0.322848,-0.915004,16.9712,-0.0177023,0.515466,-0.0256338,0.593664,-1.96682,-0.0306723,-0.00783462,0.0878839,-0.0544098,0.00377655,-0.00281763,0.012732,-0.0419993,0,0,0,0,0,0,0,0,0,-0.0302755,-0.0636362,0.00186503,0.359593,0.00407468,0.00736239,0.0191281,-0.0539358,-0.100851,-0.356327,0.0538068,0.0188673
4,0.000344161,0.482235,0.416034,1.82481,0.0203832,0.0203832,0.0203832,0.0203832,0.0203832,0.0203832,0.0203832,0.0203832,0.0203832,0.824765,-0.616966,-0.0796168,1.03306,0.482235,0.416034,1.82481,0.0636766,-0.150602,-0.0629654,-0.0190612,0.0560303,0.069026,0.0203832,-4.10089,21.4746,-1.8916,4.31137,-3.64163,-0.377533,-0.14355,-18.3152,0.63326,3.54767,-0.18675,-0.353412,-8.27507,-0.0884654,-1.32785,0.0636766,-0.150602,-0.0629654,-0.0190612,0.0560303,0.069026,0,0,0,0,0,0,0,0,0,-0.074253,-0.016214,-0.0112014,0.929551,-0.00906659,-0.00922063,0.00704305,0.10157,-0.707907,-0.933956,-0.102877,0.00387486
5,0.000344161,0.700369,-0.610041,1.65069,0.0223591,0.0223591,0.0223591,0.0223591,0.0223591,0.0223591,0.0223591,0.0223591,0.0223591,0.9292,0.478486,-0.0776409,1.04804,0.700369,-0.610041,1.65069,0.244506,0.146566,0.0175705,0.076196,0.0276203,-0.0368831,0.0223591,-1.49523,20.1034,1.46589,-11.297,-1.48197,-0.400714,-1.10847,-19.3218,1.86415,-6.16685,0.376584,-0.358594,18.0739,-0.0998994,-0.183629,0.244506,0.146566,0.0175705,0.076196,0.0276203,-0.0368831,0,0,0,0,0,0,0,0,0,-0.0757197,-0.00689153,0.0133121,0.967804,0.00650691,0.00281249,0.00906384,-0.0980002,-0.823022,-0.971635,0.102042,-0.0013218
6,0.000344161,-0.0665532,0.0427408,-0.00699592,0.0843806,0.0843806,0.0843806,0.0843806,0.0843806,0.0843806,0.0843806,0.0843806,0.0843806,-0.629312,-0.399352,0.0156194,0.745493,-0.0665532,0.0427408,-0.00699592,0.0132204,-0.0116879,0.0235624,0.00847622,-0.00189811,-0.0180092,0.0843806,0.605953,0.870393,-0.245128,-1.53388,0.140633,-0.101683,-3.8606,-0.944473,0.166294,-0.0937112,-0.36985,0.773881,1.58485,0.0470514,3.09372,0.0132204,-0.0116879,0.0235624,0.00847622,-0.00189811,-0.0180092,0,0,0,0,0,0,0,0,0,-0.000198692,0.00214627,-0.00135859,0.0227941,-0.000505442,-0.00120957,-7.57471e-05,-0.00897401,-0.00122069,-0.0235753,0.00525652,-0.000804387
7,0.000344161,-0.0852223,0.000309348,0.102579,0.0705221,0.0705221,0.0705221,0.0705221,0.0705221,0.0705221,0.0705221,0.0705221,0.0705221,-0.272182,-0.69741,0.0294779,0.749222,-0.0852223,0.000309348,0.102579,0.0499817,-0.0121555,0.0132828,0.0332615,0.00425881,0.026575,0.0705221,4.15392,6.47964,-0.47284,-1.37946,-6.71963,0.0069827,-5.36654,0.325215,-0.118919,2.30552,0.0741758,4.94531,-0.926365,0.0147776,0.31865,0.0499817,-0.0121555,0.0132828,0.0332615,0.00425881,0.026575,0,0,0,0,0,0,0,0,0,0.00486213,0.01622,-0.00441759,0.184334,-0.000637734,-0.000432368,-0.00522782,-0.00488774,-0.03783,-0.184132,0.00567208,-0.00459277
8,0.000344161,0.0182781,-0.0194677,0.0637976,0.0533586,0.0533586,0.0533586,0.0533586,0.0533586,0.0533586,0.0533586,0.0533586,0.0533586,-0.34034,-0.87233,-0.0466414,0.937532,0.0182781,-0.0194677,0.0637976,0.0175799,0.0188614,0.00917244,0.0101941,0.00518036,0.00703645,0.0533586,-6.35695,-10.8727,-0.260875,-0.183713,1.99965,0.76467,0.320084,8.85479,0.103195,1.23679,-0.0882214,-0.593333,-1.03361,-0.00454885,0.209451,0.0175799,0.0188614,0.00917244,0.0101941,0.00518036,0.00703645,0,0,0,0,0,0,0,0,0,-0.00781607,-0.0245159,-8.66175e-05,0.153042,-0.00167009,-0.00233352,0.0077479,0.025934,-0.0245576,-0.145304,-0.0267644,0.00719339
9,0.000344161,-0.0298548,0.183858,1.27227,0.030307,0.030307,0.030307,0.030307,0.030307,0.030307,0.030307,0.030307,0.030307,0.906994,0.199888,0.069693,0.93137,-0.0298548,0.183858,1.27227,0.00794595,0.0535982,-0.00344086,0.338882,-0.0527616,0.0161847,0.030307,0.728458,-3.14985,-1.25429,2.04337,-4.6009,-0.240232,-3.20275,7.78061,-3.67479,7.35482,0.37312,1.95931,-9.58205,0.224961,-0.028831,0.00794595,0.0535982,-0.00344086,0.338882,-0.0527616,0.0161847,0,0,0,0,0,0,0,0,0,0.0690542,0.00640321,-0.0102693,1.00846,-0.00396069,-0.0017376,-0.0139584,-0.0476435,-0.823125,-1.0109,0.0508471,0.00392692
10,0.000344161,-0.0438337,0.0451069,0.503623,0.0547781,0.0547781,0.0547781,0.0547781,0.0547781,0.0547781,0.0547781,0.0547781,0.0547781,0.929193,-0.645647,0.0452219,1.13239,-0.0438337,0.0451069,0.503623,0.119052,0.0277645,-0.0935287,0.0446228,0.0552139,0.0498165,0.0547781,0.626708,-16.1837,0.637598,-7.40489,1.47922,-1.05606,-0.708652,14.7483,-0.589952,-2.85903,-0.808544,-1.82935,10.2188,0.136144,2.03438,0.119052,0.0277645,-0.0935287,0.0446228,0.0552139,0.0498165,0,0,0,0,0,0,0,0,0,0.0416845,0.00328297,0.00560693,0.935941,0.00376155,0.0010467,-0.00317248,0.110475,-0.802994,-0.947437,-0.118008,0.000483967
11,0.000344161,0.0267582,0.0179432,0.0857149,0.0612072,0.0612072,0.0612072,0.0612072,0.0612072,0.0612072,0.0612072,0.0612072,0.0612072,-0.233643,-0.86282,0.0387928,0.894736,0.0267582,0.0179432,0.0857149,0.0629591,-0.0287547,0.00549889,0.0149757,0.00102878,0.0154119,0.0612072,6.23054,9.16884,0.221876,0.722937,-1.93628,0.803278,-0.257162,-7.25932,-0.11792,-1.16494,-0.0668169,-0.0767251,0.424057,0.0123029,0.248172,0.0629591,-0.0287547,0.00549889,0.0149757,0.00102878,0.0154119,0,0,0,0,0,0,0,0,0,0.00776291,0.0242926,0.000506479,0.215003,0.000593191,0.00142474,-0.00768965,0.0287255,-0.0434575,-0.206915,-0.0293834,-0.00703635
12,0.000344161,-0.84309,-0.192837,3.75243,0.00506638,0.00506638,0.00506638,0.00506638,0.00506638,0.00506638,0.00506638,0.00506638,0.00506638,0.848514,-0.9523,-0.0949336,1.27901,-0.84309,-0.192837,3.75243,-0.10347,-0.070676,-0.0823212,-0.121884,0.0497494,0.0915772,0.00506638,-4.52275,27.5839,-0.289322,1.15866,-5.64349,-0.0942401,0.0170991,-21.0973,0.0979351,1.6067,-0.0156539,0.129954,-2.57253,-0.0426851,-3.89948,-0.10347,-0.070676,-0.0823212,-0.121884,0.0497494,0.0915772,0,0,0,0,0,0,0,0,0,-0.0863215,-0.0178219,-0.00208609,0.910136,-0.0129388,-0.00151389,0.00518942,0.125276,-0.691297,-0.911901,-0.124935,0.00555362
13,0.000344161,-0.161735,0.0320263,0.0739855,0.0488737,0.0488737,0.0488737,0.0488737,0.0488737,0.0488737,0.0488737,0.0488737,0.0488737,-0.237732,-0.655162,0.0275615,0.697505,-0.161735,0.0320263,0.0739855,0.0848079,-0.0140081,0.1115,0.0570848,-0.038103,0.0219769,0.0488737,3.63832,3.37998,-0.902355,-5.04854,-11.5091,-1.21381,-17.169,8.29088,0.21024,9.65369,0.709577,16.4764,-4.63718,0.0292898,0.618607,0.0848079,-0.0140081,0.1115,0.0570848,-0.038103,0.0219769,0,0,0,0,0,0,0,0,0,0.00474455,0.0139521,-0.00937385,0.192872,-0.000815952,0.000210226,-0.0033269,-0.0114503,-0.04401,-0.203895,0.0181651,-0.00440719
14,0.000344161,0.094532,0.0509541,0.707604,0.0329543,0.0329543,0.0329543,0.0329543,0.0329543,0.0329543,0.0329543,0.0329543,0.0329543,0.814015,-0.856984,-0.0670457,1.18387,0.094532,0.0509541,0.707604,0.165213,-0.0557057,-0.015213,-0.0339022,0.0213728,0.0902756,0.0329543,-4.17161,23.3564,-0.730163,1.93047,-4.58899,-0.692071,-0.243258,-18.8619,0.0645202,0.583797,-0.10441,-0.61368,-2.56522,-0.0829997,0.149334,0.165213,-0.0557057,-0.015213,-0.0339022,0.0213728,0.0902756,0,0,0,0,0,0,0,0,0,-0.0607913,-0.015453,-0.00395423,0.901802,-0.00896288,-0.00390446,0.00473214,0.117336,-0.671359,-0.908875,-0.118167,0.00461543
15,0.000344161,0.561354,-0.0190229,1.97532,0.0176243,0.0176243,0.0176243,0.0176243,0.0176243,0.0176243,0.0176243,0.0176243,0.0176243,0.873335,-0.79651,-0.0823757,1.18488,0.561354,-0.0190229,1.97532,0.235707,-0.202594,-0.0493546,-0.108223,0.0544987,0.0281981,0.0176243,-3.43903,25.9793,-0.955916,3.69236,-4.39241,-0.366128,0.118563,-22.1483,0.293578,2.25481,-0.103555,-0.48554,-5.92814,-0.0836277,-1.60835,0.235707,-0.202594,-0.0493546,-0.108223,0.0544987,0.0281981,0,0,0,0,0,0,0,0,0,-0.0759098,-0.0124704,-0.00641625,0.920026,-0.010761,-0.00516885,0.00447301,0.118417,-0.732966,-0.924181,-0.118908,0.00326909
16,0.000344161,-0.0581585,-0.03662,0.0481856,0.0830814,0.0830814,0.0830814,0.0830814,0.0830814,0.0830814,0.0830814,0.0830814,0.0830814,-0.361369,0.668383,-0.0169186,0.760006,-0.0581585,-0.03662,0.0481856,0.0120895,-0.0129944,0.00156021,0.0113772,-0.00586385,-0.00164694,0.0830814,-2.00068,-3.12867,-0.293961,-1.08044,2.90528,0.14402,-2.99923,0.281552,0.0607386,0.826689,0.106586,2.72252,0.290376,-0.000719674,0.228519,0.0120895,-0.0129944,0.00156021,0.0113772,-0.00586385,-0.00164694,0,0,0,0,0,0,0,0,0,-0.00292683,-0.00772889,-0.00248481,0.136179,-0.000498736,-0.000584738,0.00257462,0.00888965,-0.0237532,-0.134723,-0.00788243,0.00220221
17,0.000344161,0.0807436,-0.0613186,0.32865,0.0849293,0.0849293,0.0849293,0.0849293,0.0849293,0.0849293,0.0849293,0.0849293,0.0849293,0.887408,0.915071,-0.00371589,1.2747,0.0807436,-0.0613186,0.32865,-0.048555,-0.036313,0.0172882,0.0757449,-0.0167913,0.067642,0.0849293,0.0172056,1.65112,0.0207329,-0.255264,-0.258833,-1.48165,-1.29175,-1.47303,-0.00361419,-0.1112,0.2231,-1.58319,0.427782,0.0421679,2.54629,-0.048555,-0.036313,0.0172882,0.0757449,-0.0167913,0.067642,0,0,0,0,0,0,0,0,0,-0.00418339,-0.000330506,0.000372781,0.908072,-0.000175292,-0.000528582,0.000186895,-0.119186,-0.733899,-0.922715,0.121249,0.00037529
18,0.000344161,0.0693593,-0.348584,0.800184,0.0451145,0.0451145,0.0451145,0.0451145,0.0451145,0.0451145,0.0451145,0.0451145,0.0451145,0.940365,0.00769744,-0.0548855,0.941997,0.0693593,-0.348584,0.800184,0.116165,-0.0273998,0.00227356,0.0537547,0.0174669,0.106113,0.0451145,-0.194819,1.57229,0.0135731,-0.0507804,5.02763,-0.276764,-7.21537,-6.66928,3.61679,-0.378864,0.0210912,3.48662,0.778229,-0.0938097,2.92856,0.116165,-0.0273998,0.00227356,0.0537547,0.0174669,0.106113,0,0,0,0,0,0,0,0,0,-0.0574195,-0.00455196,-0.000425923,1.02798,-0.000853041,0.000287656,0.0141941,-0.000661983,-0.8626,-1.03072,0.00104756,-0.00409717
19,0.000344161,-0.0597711,0.0213065,0.213527,0.0533189,0.0533189,0.0533189,0.0533189,0.0533189,0.0533189,0.0533189,0.0533189,0.0533189,-0.0429912,-0.734349,0.0204702,0.735891,-0.0597711,0.0213065,0.213527,0.0916222,-0.0575756,0.0550117,0.029545,-0.0126736,0.0304741,0.0533189,4.21652,5.95921,-0.231958,0.332874,-10.1506,-0.921061,-5.26509,4.25114,0.129675,1.98965,0.511488,4.07968,-2.34383,0.0162856,0.971887,0.0916222,-0.0575756,0.0550117,0.029545,-0.0126736,0.0304741,0,0,0,0,0,0,0,0,0,0.00649618,0.0163321,-0.00395784,0.343852,-0.000362867,0.00106251,-0.0044125,0.0124747,-0.09836,-0.352513,-0.00748655,-0.0049748
20,0.000344161,-0.119991,0.0877438,0.102283,0.0249447,0.0249447,0.0249447,0.0249447,0.0249447,0.0249447,0.0249447,0.0249447,0.0249447,-0.507706,0.519498,0.0750553,0.730258,-0.119991,0.0877438,0.102283,-0.0600359,-0.0635315,0.0626988,0.0643232,0.0730442,-0.0042212,0.0249447,5.20321,2.03626,1.78693,6.81507,-5.49514,-0.0797418,-1.32186,3.57888,0.358541,-4.25043,0.0615765,1.43002,-2.65239,0.00711555,-0.210439,-0.0600359,-0.0635315,0.0626988,0.0643232,0.0730442,-0.0042212,0,0,0,0,0,0,0,0,0,0.00408372,0.0192902,0.0110957,0.0634891,0.000796696,0.00613836,-0.00431137,0.0154362,-0.0078398,-0.0636596,-0.01409,-0.00641122
21,0.000344161,0.0339527,-0.0892911,0.472819,0.0276665,0.0276665,0.0276665,0.0276665,0.0276665,0.0276665,0.0276665,0.0276665,0.0276665,0.271421,-0.806569,-0.0723335,0.854081,0.0339527,-0.0892911,0.472819,0.197614,0.0852047,-0.00322342,0.0347867,0.0118594,0.0515628,0.0276665,-15.3721,12.0018,-1.74339,-1.5475,-5.55148,-0.224259,-1.10477,-6.48426,-0.711685,-4.82689,0.206879,0.558389,6.46368,-0.0516745,0.073566,0.197614,0.0852047,-0.00322342,0.0347867,0.0118594,0.0515628,0,0,0,0,0,0,0,0,0,-0.0446851,-0.0575824,-0.00795452,0.611493,-0.00525152,-0.00862738,0.0149057,0.0600588,-0.248921,-0.613768,-0.0578714,0.0182897
22,0.000344161,0.278237,0.0357327,0.300869,0.0109505,0.0109505,0.0109505,0.0109505,0.0109505,0.0109505,0.0109505,0.0109505,0.0109505,-0.374787,-0.589661,-0.0890495,0.70434,0.278237,0.0357327,0.300869,0.0102805,-0.0855497,0.0517311,-0.00435197,-0.0214081,-0.0556874,0.0109505,-8.64957,-6.18126,2.55876,10.1726,14.9056,-0.113079,-2.63506,-9.00254,0.0255901,-15.5178,0.0701876,2.64604,5.30941,-0.0151275,-0.311846,0.0102805,-0.0855497,0.0517311,-0.00435197,-0.0214081,-0.0556874,0,0,0,0,0,0,0,0,0,-0.0109413,-0.0331708,0.0202779,0.120351,0.00123066,0.00445423,0.0101318,-0.0212046,-0.0210793,-0.120964,0.0216924,0.00967154
23,0.000344161,0.0751228,-0.00192261,0.0273282,0.0215597,0.0215597,0.0215597,0.0215597,0.0215597,0.0215597,0.0215597,0.0215597,0.0215597,-0.316173,-0.570977,-0.0683356,0.656239,0.0751228,-0.00192261,0.0273282,-0.0417601,-0.0192193,-0.0188894,0.0337669,-0.0309358,-0.00771689,0.0215597,-5.39868,16.7794,2.80011,14.3244,12.0716,-1.20907,-15.6591,-28.9261,-1.42759,-35.7704,0.927114,14.9968,21.4479,-0.00412356,0.634989,-0.0417601,-0.0192193,-0.0188894,0.0337669,-0.0309358,-0.00771689,0,0,0,0,0,0,0,0,0,-0.00937504,-0.0193029,0.0303968,0.135362,0.000923237,-0.00258796,0.00093023,-0.0248169,-0.0282354,-0.147642,0.0337787,0.00784015
24,0.000344161,0.0474173,-0.142954,1.25669,0.0306787,0.0306787,0.0306787,0.0306787,0.0306787,0.0306787,0.0306787,0.0306787,0.0306787,0.851184,-0.0809221,0.0353549,0.855753,0.0474173,-0.142954,1.25669,0.00312695,-0.0775283,0.0395203,0.116917,-0.00991595,0.0831712,0.0306787,0.013906,1.3131,0.0507499,7.8913,-1.45097,-0.0230039,-0.792272,0.0904502,-2.15815,-4.85698,0.370573,-2.84076,-2.89137,0.157507,2.37634,0.00312695,-0.0775283,0.0395203,0.116917,-0.00991595,0.0831712,0,0,0,0,0,0,0,0,0,0.0349493,0.00214308,0.00179118,1.01615,-0.000176447,-0.00205897,-0.00814826,0.0227408,-0.770468,-1.01599,-0.0191342,0.0032613
25,0.000344161,0.0162667,-0.0773683,0.177818,0.0590069,0.0590069,0.0590069,0.0590069,0.0590069,0.0590069,0.0590069,0.0590069,0.0590069,0.07233,-0.757177,-0.0117618,0.760715,0.0162667,-0.0773683,0.177818,0.0578544,-0.00974464,-0.00994873,0.0496362,0.00993752,0.0482559,0.0590069,-2.70962,-1.68314,-0.0681511,-1.43835,2.95869,-0.585618,0.282179,-1.29181,-0.106727,0.429306,0.490415,-1.53496,1.08642,-0.0164488,1.07496,0.0578544,-0.00974464,-0.00994873,0.0496362,0.00993752,0.0482559,0,0,0,0,0,0,0,0,0,-0.00574546,-0.0101699,0.00108973,0.443635,-0.00102951,-0.00186869,0.00280345,0.0287674,-0.144196,-0.449591,-0.0237639,0.00324794
26,0.000344161,0.222385,0.096447,0.431916,0.00484495,0.00484495,0.00484495,0.00484495,0.00484495,0.00484495,0.00484495,0.00484495,0.00484495,-0.375048,-0.754367,-0.0951551,0.847812,0.222385,0.096447,0.431916,0.261058,0.00450298,-0.0127106,-0.161904,-0.018643,-0.025485,0.00484495,-12.0919,-22.4416,0.301512,1.31508,11.3634,0.0582215,-0.119141,10.8558,0.594883,2.66596,-0.0198576,-0.0777817,-4.07749,-0.0100028,-0.234993,0.261058,0.00450298,-0.0127106,-0.161904,-0.018643,-0.025485,0,0,0,0,0,0,0,0,0,-0.0133902,-0.0459619,0.00295744,0.131286,-0.00102855,0.000102714,0.0153572,0.00678705,-0.0222388,-0.130831,-0.00717206,0.0130149
27,0.000344161,-0.635795,-0.378486,0.98511,0.0376304,0.0376304,0.0376304,0.0376304,0.0376304,0.0376304,0.0376304,0.0376304,0.0376304,0.96237,-0.621439,-0.0452326,1.14647,-0.635795,-0.378486,0.98511,-0.0552386,-0.123066,0.122307,-0.0612276,-0.0521336,0.0783301,0.0376304,-0.120329,11.3874,-0.327708,12.3899,-0.724182,-1.16337,-2.5011,-10.0274,1.04172,3.90748,-1.10041,-2.18397,-15.9189,0.159523,3.69997,-0.0552386,-0.123066,0.122307,-0.0612276,-0.0521336,0.0783301,0,0,0,0,0,0,0,0,0,-0.0430705,-0.00208104,-0.00643875,0.942334,-0.00602919,0.00193101,0.00369925,0.109522,-0.837451,-0.952745,-0.121047,-1.39349e-05
28,0.000344161,0.0559168,-0.460221,4.32774,0.00785248,0.00785248,0.00785248,0.00785248,0.00785248,0.00785248,0.00785248,0.00785248,0.00785248,0.903805,0.992148,-0.0292451,1.34241,0.0559168,-0.460221,4.32774,-0.157309,-0.0852008,-0.0369797,0.0783897,0.0188684,0.0461033,0.00785248,-0.488005,11.8768,0.0126408,-0.10415,-1.37634,-1.43681,-1.68482,-10.5563,-0.00306025,0.163073,0.0811085,-5.39241,0.401297,0.0176131,2.74949,-0.157309,-0.0852008,-0.0369797,0.0783897,0.0188684,0.0461033,0,0,0,0,0,0,0,0,0,-0.0273511,-0.00264241,0.00061284,0.909203,0.00294635,-0.00133844,0.000960802,-0.122124,-0.739619,-0.923941,0.123124,0.000902737
29,0.000344161,0.293267,-0.198976,1.23379,0.0134262,0.0134262,0.0134262,0.0134262,0.0134262,0.0134262,0.0134262,0.0134262,0.0134262,0.35624,0.932536,-0.0865738,1.00201,0.293267,-0.198976,1.23379,-0.109284,0.0497208,0.00891113,0.03124,0.0061655,0.0614896,0.0134262,-16.4669,17.2527,0.994335,-0.799377,-11.5212,-0.0882405,-0.835655,-6.02484,-0.10165,3.23093,-0.0232905,0.525417,-2.23258,-0.0442439,-0.923557,-0.109284,0.0497208,0.00891113,0.03124,0.0061655,0.0614896,0,0,0,0,0,0,0,0,0,-0.0584656,-0.0636931,0.00345271,0.667682,0.00768599,0.00698785,0.0188356,-0.0932269,-0.295478,-0.668475,0.0930557,0.0192739
30,0.000344161,-0.0503039,-0.0366355,0.00125456,0.0894827,0.0894827,0.0894827,0.0894827,0.0894827,0.0894827,0.0894827,0.0894827,0.0894827,-0.638779,-0.471605,0.0105173,0.794078,-0.0503039,-0.0366355,0.00125456,-0.00218977,0.000962615,0.0418704,-0.00215992,0.00402933,-0.00810146,0.0894827,0.543086,1.38081,-0.146598,-1.07153,-0.26986,-0.0123786,-4.53984,-1.06065,0.125439,-0.14505,-0.399315,-0.437101,1.25322,0.044037,4.97568,-0.00218977,0.000962615,0.0418704,-0.00215992,0.00402933,-0.00810146,0,0,0,0,0,0,0,0,0,-0.000272334,0.00189666,-0.00070176,0.0271328,-0.000442514,-0.000754596,-0.000191423,-0.00743213,-0.00129337,-0.0268379,0.00347928,-0.000628143
31,0.000344161,0.12938,-0.0135734,0.0125917,0.0238307,0.0238307,0.0238307,0.0238307,0.0238307,0.0238307,0.0238307,0.0238307,0.0238307,-0.46689,-0.670662,-0.0761693,0.820716,0.12938,-0.0135734,0.0125917,0.00332677,-0.0622188,0.0205421,-0.0521175,-0.0109754,0.0181165,0.0238307,-7.49782,-13.3825,0.81408,3.84274,9.00972,0.137168,-0.0489345,4.24339,0.133728,-0.203728,-0.108912,-0.190272,-3.62544,-0.00462654,0.226615,0.00332677,-0.0622188,0.0205421,-0.0521175,-0.0109754,0.0181165,0,0,0,0,0,0,0,0,0,-0.00752894,-0.0289347,0.00501259,0.090594,-0.000125641,0.00250603,0.00894582,-0.00322734,-0.0121639,-0.0890169,0.00202847,0.00860521
32,0.000344161,0.107945,0.229956,0.898214,0.00388491,0.00388491,0.00388491,0.00388491,0.00388491,0.00388491,0.00388491,0.00388491,0.00388491,-0.627378,0.831074,-0.0961151,1.04572,0.107945,0.229956,0.898214,-1.06521,0.175931,-0.662542,-0.457369,0.00727314,0.111423,0.00388491,-7.28707,-7.93445,0.503202,-1.40049,3.06684,0.097564,2.86354,4.75966,-0.329217,2.29508,-0.00400914,-0.0534199,-1.12454,-0.0130706,-3.70834,-1.06521,0.175931,-0.662542,-0.457369,0.00727314,0.111423,0,0,0,0,0,0,0,0,0,-0.00417987,-0.0313301,0.00229448,0.0290767,0.000545075,0.00449685,0.00649844,-0.00839369,-0.00178438,-0.0347265,0.00842633,0.0109231
33,0.000344161,-0.147395,-0.0261259,0.0822555,0.0332935,0.0332935,0.0332935,0.0332935,0.0332935,0.0332935,0.0332935,0.0332935,0.0332935,0.108865,0.734191,-0.0667065,0.74521,-0.147395,-0.0261259,0.0822555,0.128526,-0.0731383,0.0765343,-0.072191,0.0438325,-0.0136547,0.0332935,-16.2717,-5.50858,0.450386,13.1965,18.3415,-0.568189,2.72748,-12.6856,-0.49974,-8.2109,-0.22215,-2.88325,-4.9595,-0.0618624,0.0735098,0.128526,-0.0731383,0.0765343,-0.072191,0.0438325,-0.0136547,0,0,0,0,0,0,0,0,0,-0.0325744,-0.0613421,-0.00344837,0.480575,0.00125596,0.00722084,0.0165142,-0.0234341,-0.163199,-0.485492,0.0216509,0.0189962
34,0.000344161,0.024451,-0.000830382,0.0756107,0.0841491,0.0841491,0.0841491,0.0841491,0.0841491,0.0841491,0.0841491,0.0841491,0.0841491,-0.140778,0.869815,-0.0158509,0.881276,0.024451,-0.000830382,0.0756107,-0.00859088,-0.02849,0.0391636,0.00446737,0.00136304,0.00454354,0.0841491,-2.91202,-3.44361,0.131793,0.569096,0.545271,0.872427,-1.29467,2.87389,0.0244405,-0.243975,-0.0309634,0.863678,-0.324291,-0.00586735,0.355379,-0.00859088,-0.02849,0.0391636,0.00446737,0.00136304,0.00454354,0,0,0,0,0,0,0,0,0,-0.00509203,-0.011265,3.96764e-05,0.279504,0.000188259,0.000993354,0.00348265,-0.0343288,-0.0658564,-0.270388,0.0340328,0.00333149
35,0.000344161,-0.0282898,-0.0468411,0.783998,0.0393363,0.0393363,0.0393363,0.0393363,0.0393363,0.0393363,0.0393363,0.0393363,0.0393363,0.819007,0.602225,0.0606637,1.01839,-0.0282898,-0.0468411,0.783998,0.0722423,0.0649394,0.0102692,0.0515525,-0.0435762,0.037582,0.0393363,3.07729,-17.6712,-1.59535,3.25949,2.6837,-0.732294,-0.786252,15.0158,-0.453963,2.77163,0.358972,-0.577806,-5.98428,0.151599,0.58006,0.0722423,0.0649394,0.0102692,0.0515525,-0.0435762,0.037582,0,0,0,0,0,0,0,0,0,0.0553025,0.0123596,-0.00825097,0.929178,-0.00629033,-0.00705314,-0.0054001,-0.0948406,-0.705405,-0.936398,0.0979945,-0.00244213
36,0.000344161,0.0728064,0.122998,0.429768,0.0708305,0.0708305,0.0708305,0.0708305,0.0708305,0.0708305,0.0708305,0.0708305,0.0708305,0.929169,-0.265665,0.00655628,0.966425,0.0728064,0.122998,0.429768,0.0868207,-0.0263506,0.00991821,-0.0521328,0.0897965,0.111919,0.0708305,0.0559985,-1.10888,0.0700721,-0.316535,-0.225267,-0.894577,-5.72171,1.26134,-0.0332344,0.117713,-1.19654,2.71291,0.0758244,0.0851417,2.57903,0.0868207,-0.0263506,0.00991821,-0.0521328,0.0897965,0.111919,0,0,0,0,0,0,0,0,0,0.00575464,0.000420428,0.000117919,0.996125,-0.000668565,0.000319295,-0.000720504,0.0605102,-0.841025,-1.00497,-0.0715776,0.000691634
37,0.000344161,-0.0449512,-0.0104426,0.0280895,0.0918286,0.0918286,0.0918286,0.0918286,0.0918286,0.0918286,0.0918286,0.0918286,0.0918286,-0.443734,0.679996,0.00817142,0.81201,-0.0449512,-0.0104426,0.0280895,0.00817834,-0.00736725,0.0349836,0.0100804,0.00754632,0.00485075,0.0918286,0.816152,1.48439,0.081931,0.483915,-0.885746,0.296011,0.0920329,-0.55369,-0.00903214,-0.164228,0.229179,-0.196236,-0.309244,0.00277761,0.0761137,0.00817834,-0.00736725,0.0349836,0.0100804,0.00754632,0.00485075,0,0,0,0,0,0,0,0,0,0.0002174,0.00316049,0.000514017,0.102093,-0.000309953,0.00023162,-0.000955921,0.00427044,-0.0142256,-0.0987829,-0.00190318,-0.000923021
38,0.000344161,-0.191889,-0.039454,0.00287305,0.0486144,0.0486144,0.0486144,0.0486144,0.0486144,0.0486144,0.0486144,0.0486144,0.0486144,-0.387183,0.545978,0.0478035,0.671035,-0.191889,-0.039454,0.00287305,0.0247657,-6.04317e-05,0.0649681,0.0448381,0.0589104,0.0230335,0.0486144,3.47352,-5.8047,1.57186,6.25982,-4.92095,-0.833528,-14.6547,10.9175,0.549654,-13.7759,-0.625633,14.4403,7.55549,0.015391,0.211522,0.0247657,-6.04317e-05,0.0649681,0.0448381,0.0589104,0.0230335,0,0,0,0,0,0,0,0,0,0.00417259,0.0127247,0.0146548,0.101469,0.000649011,0.00106325,-0.00179432,0.022337,-0.0184755,-0.109155,-0.0280043,-0.00457466
39,0.000344161,-0.0797658,-0.00909334,0.26458,0.0717138,0.0717138,0.0717138,0.0717138,0.0717138,0.0717138,0.0717138,0.0717138,0.0717138,0.683101,0.902271,0.0282862,1.13204,-0.0797658,-0.00909334,0.26458,0.0434834,-0.0316319,0.0479279,0.0485637,-0.0176754,0.0689179,0.0717138,2.90836,-8.24156,-0.267928,0.461049,2.30551,-1.04985,-1.53858,6.01581,0.00908536,-0.211604,0.0697283,-0.240875,-0.240352,0.0629714,1.51488,0.0434834,-0.0316319,0.0479279,0.0485637,-0.0176754,0.0689179,0,0,0,0,0,0,0,0,0,0.0233615,0.0111345,-0.00118622,0.85553,-0.00368309,-0.00180937,-0.00333642,-0.111292,-0.551812,-0.865549,0.111812,-0.00296522
40,0.000344161,-0.225739,-0.0546814,1.34042,0.0120646,0.0120646,0.0120646,0.0120646,0.0120646,0.0120646,0.0120646,0.0120646,0.0120646,0.586582,0.987935,0.044348,1.14981,-0.225739,-0.0546814,1.34042,-0.0496426,-0.0446159,0.159248,0.0346324,-0.0133677,0.0604434,0.0120646,5.91322,-12.1522,-0.0645787,0.107994,6.05445,-0.648487,-2.28296,6.32352,0.00403393,-0.0579702,0.0485373,-0.0962274,0.00465767,0.07594,1.03877,-0.0496426,-0.0446159,0.159248,0.0346324,-0.0133677,0.0604434,0,0,0,0,0,0,0,0,0,0.0351121,0.0223502,0.000959434,0.810639,-0.00576252,-0.00205138,-0.00677431,-0.118863,-0.460815,-0.815532,0.119215,-0.00628573
41,0.000344161,0.239512,-0.385389,0.941224,0.0435856,0.0435856,0.0435856,0.0435856,0.0435856,0.0435856,0.0435856,0.0435856,0.0435856,0.898638,0.0781736,-0.0564144,0.903794,0.239512,-0.385389,0.941224,0.0848385,-0.0597998,-0.0194626,0.105178,0.0321083,0.0475169,0.0435856,-0.217727,-3.3933,0.385531,2.55579,5.50254,-0.0973267,-3.52189,-2.34875,3.60266,-3.7584,0.0711463,1.23513,1.588,-0.0956487,1.34554,0.0848385,-0.0597998,-0.0194626,0.105178,0.0321083,0.0475169,0,0,0,0,0,0,0,0,0,-0.0586735,-0.00473385,0.00377023,1.02103,0.00018031,-0.000512926,0.0144698,-0.0183193,-0.819005,-1.0222,0.0193518,-0.00431007
42,0.000344161,-0.126912,0.128587,1.39917,0.0148796,0.0148796,0.0148796,0.0148796,0.0148796,0.0148796,0.0148796,0.0148796,0.0148796,0.694565,0.598437,0.0851204,0.920757,-0.126912,0.128587,1.39917,0.0250456,0.284757,-0.0123978,-0.0718158,0.0334411,0.0904186,0.0148796,7.07952,-18.4289,-2.85846,4.83621,4.41898,-0.242847,-0.922259,14.1368,0.156297,-2.04623,0.0689294,0.474568,-2.91857,0.11854,-0.951481,0.0250456,0.284757,-0.0123978,-0.0718158,0.0334411,0.0904186,0,0,0,0,0,0,0,0,0,0.0753074,0.0269867,-0.0150887,0.897864,-0.00729731,-0.0106483,-0.00811376,-0.0792981,-0.591396,-0.900417,0.0803218,-0.00749137
43,0.000344161,-0.00889748,0.0255806,0.0778418,0.0666358,0.0666358,0.0666358,0.0666358,0.0666358,0.0666358,0.0666358,0.0666358,0.0666358,0.200008,-0.902833,0.0333642,0.925324,-0.00889748,0.0255806,0.0778418,0.114245,-0.0277015,-0.028492,0.0123711,-0.0224099,0.0463233,0.0666358,6.96917,-2.46904,0.50347,0.0662623,2.74212,0.0884553,-3.45096,-0.264186,0.135028,2.34183,0.270063,2.66808,-2.43367,0.0348967,0.705034,0.114245,-0.0277015,-0.028492,0.0123711,-0.0224099,0.0463233,0,0,0,0,0,0,0,0,0,0.0175834,0.0269801,0.00211093,0.544524,0.00173209,0.00264675,-0.00769997,0.0749617,-0.200822,-0.543925,-0.0724851,-0.00803086
44,0.000344161,-0.046494,0.0969481,0.573641,0.0238888,0.0238888,0.0238888,0.0238888,0.0238888,0.0238888,0.0238888,0.0238888,0.0238888,0.274572,0.757585,0.0761112,0.809393,-0.046494,0.0969481,0.573641,-0.0132308,0.0767977,0.0426331,-0.0119488,0.012938,0.00294161,0.0238888,16.2898,-17.1204,-2.18864,-3.52455,11.546,-0.166229,-0.343414,5.62085,0.94022,-3.46583,-0.188586,-0.0206886,6.89344,0.0688607,-0.209539,-0.0132308,0.0767977,0.0426331,-0.0119488,0.012938,0.00294161,0,0,0,0,0,0,0,0,0,0.0465546,0.0614483,-0.0118571,0.622417,-0.00416669,-0.00926124,-0.0152933,-0.0478001,-0.254595,-0.623653,0.0460436,-0.0195756
45,0.000344161,0.213068,0.0403347,1.33597,0.0257361,0.0257361,0.0257361,0.0257361,0.0257361,0.0257361,0.0257361,0.0257361,0.0257361,0.932412,-0.575602,0.0742639,1.09828,0.213068,0.0403347,1.33597,-0.0358961,0.0380953,-0.0535355,0.161568,0.049511,0.120766,0.0257361,1.29427,-22.3129,1.28772,-12.488,2.29845,-0.522775,-0.604122,19.8014,-1.31641,-5.48933,-0.508318,-0.878071,17.9369,0.179208,0.146222,-0.0358961,0.0380953,-0.0535355,0.161568,0.049511,0.120766,0,0,0,0,0,0,0,0,0,0.069649,0.00582629,0.0105699,0.950685,0.00663176,0.00268827,-0.00623979,0.109482,-0.814173,-0.956448,-0.11407,0.00103428
46,0.000344161,-0.0260082,-0.122805,0.368201,0.0658108,0.0658108,0.0658108,0.0658108,0.0658108,0.0658108,0.0658108,0.0658108,0.0658108,0.819709,-0.322251,0.0235821,0.881093,-0.0260082,-0.122805,0.368201,0.0158145,-0.0685467,-0.0017395,0.033732,-0.0117254,0.0720722,0.0658108,0.485271,1.82677,0.442614,3.07911,-2.55815,-0.235857,-10.9088,0.757391,-0.464317,-1.05307,0.220375,7.89509,-1.90324,0.104073,2.64554,0.0158145,-0.0685467,-0.0017395,0.033732,-0.0117254,0.0720722,0,0,0,0,0,0,0,0,0,0.0222869,0.00222084,0.00396323,0.975024,0.00049605,-0.000222554,-0.00243752,0.0678732,-0.728551,-0.9774,-0.0657867,0.000596134
47,0.000344161,-0.00826225,-0.0574418,0.0331945,0.051136,0.051136,0.051136,0.051136,0.051136,0.051136,0.051136,0.051136,0.051136,-0.552133,0.325109,0.00636992,0.640771,-0.00826225,-0.0574418,0.0331945,0.0371669,-0.0113512,-0.00192976,-0.0130786,0.0572649,0.0131283,0.051136,0.116137,-0.984328,0.113258,0.158707,0.513202,-0.397363,-4.32427,0.479389,0.1106,-0.294361,-0.291653,4.07132,0.193095,-0.00618329,0.219753,0.0371669,-0.0113512,-0.00192976,-0.0130786,0.0572649,0.0131283,0,0,0,0,0,0,0,0,0,-0.000420906,0.00046909,0.000820937,0.0220966,-0.00026142,0.000198133,0.000190181,0.0125317,-0.00254469,-0.0260895,-0.0148756,-0.000262702
48,0.000344161,-0.145649,0.0557385,0.662246,0.00196241,0.00196241,0.00196241,0.00196241,0.00196241,0.00196241,0.00196241,0.00196241,0.00196241,-0.496728,-0.998038,-0.0217384,1.11503,-0.145649,0.0557385,0.662246,0.0785769,0.069433,0.465577,-0.000962317,0.0173197,-0.00784445,0.00196241,-2.33747,-4.42688,-0.00572205,0.00631699,-1.82262,1.49412,-0.931262,6.39514,-0.00193594,-0.0517062,-0.00332484,0.221925,-0.0103493,-0.0078063,0.0470912,0.0785769,0.069433,0.465577,-0.000962317,0.0173197,-0.00784445,0,0,0,0,0,0,0,0,0,-0.00250544,-0.00866665,0.00261339,0.0852578,-0.00115857,-0.00197628,0.00261333,0.0338873,-0.00421102,-0.0656609,-0.0337474,0.00254957
49,0.000344161,-4.69798,4.14418,7.17121,0.00411553,0.00411553,0.00411553,0.00411553,0.00411553,0.00411553,0.00411553,0.00411553,0.00411553,0.984906,0.839336,-0.0958845,1.29758,-4.69798,4.14418,7.17121,0.169558,0.0795622,-0.00960541,-0.065787,0.0478363,0.266041,0.00411553,-0.89467,35.014,0.188797,-9.53493,-1.19297,-0.110468,-6.08102,-29.1231,0.648228,-4.70319,0.0381279,-0.107416,10.0939,-0.0662295,-0.982775,0.169558,0.0795622,-0.00960541,-0.065787,0.0478363,0.266041,0,0,0,0,0,0,0,0,0,-0.0894056,-0.00369149,0.00634182,0.934095,0.0106196,-0.00365823,0.00284627,-0.123594,-0.833784,-0.935295,0.124454,0.000933127
50,0.000344161,-0.0117583,0.00562739,0.068305,0.0783396,0.0783396,0.0783396,0.0783396,0.0783396,0.0783396,0.0783396,0.0783396,0.0783396,-0.647018,-0.592634,-0.0216604,0.877677,-0.0117583,0.00562739,0.068305,0.00765288,-0.0245861,0.0275893,-0.00785317,0.00393318,0.00796849,0.0783396,-1.41505,-5.5667,0.172068,1.03536,1.22069,0.1205,-5.14202,4.35776,-0.237913,0.070834,-0.244273,-1.69922,-1.11182,-0.176278,6.77293,0.00765288,-0.0245861,0.0275893,-0.00785317,0.00393318,0.00796849,0,0,0,0,0,0,0,0,0,-0.00125389,-0.00493529,0.000860947,0.0315153,-0.000297913,0.000613873,0.000872869,-0.00316999,-0.00132411,-0.0300344,0.000766595,0.00126015
51,0.000344161,0.099851,-0.0187141,0.276083,0.0950684,0.0950684,0.0950684,0.0950684,0.0950684,0.0950684,0.0950684,0.0950684,0.0950684,0.840034,-0.595574,-0.00493159,1.02975,0.099851,-0.0187141,0.276083,0.025114,0.0102344,0.0220261,0.0502407,0.0629492,0.10126,0.0950684,-0.181909,2.2205,-0.189017,0.59403,-0.359467,-1.22578,-2.31578,-1.96088,0.0641956,0.414522,-0.583977,-0.901036,-0.989838,0.0158781,2.94073,0.025114,0.0102344,0.0220261,0.0502407,0.0629492,0.10126,0,0,0,0,0,0,0,0,0,-0.00515167,-0.000870259,-0.000951725,0.929228,-0.00162931,-0.0008361,0.000485898,0.098246,-0.724291,-0.941266,-0.103456,0.000499406
52,0.000344161,0.0846956,-0.0132146,0.0346253,0.0497494,0.0497494,0.0497494,0.0497494,0.0497494,0.0497494,0.0497494,0.0497494,0.0497494,-0.506686,-0.736172,-0.0502506,0.895101,0.0846956,-0.0132146,0.0346253,0.0365511,-0.0123434,0.00576448,-0.0258681,0.0123601,0.0103674,0.0497494,-4.91079,-8.09612,0.119042,1.56911,4.43909,0.327112,0.89008,3.57234,-0.0569932,-0.159589,-0.127792,-0.91381,-1.39631,0.000263747,-0.0108952,0.0365511,-0.0123434,0.00576448,-0.0258681,0.0123601,0.0103674,0,0,0,0,0,0,0,0,0,-0.0045655,-0.0186637,0.00116038,0.0786145,-0.000611166,-9.33901e-05,0.00529315,0.00432685,-0.00857001,-0.0752858,-0.00548116,0.00576061
53,0.000344161,0.0407028,0.122859,0.265019,0.0252947,0.0252947,0.0252947,0.0252947,0.0252947,0.0252947,0.0252947,0.0252947,0.0252947,0.0559411,0.735473,0.0747053,0.741371,0.0407028,0.122859,0.265019,0.00682497,-0.0228973,0.0750122,0.00918579,0.0559717,0.0123148,0.0252947,17.2944,13.9476,0.10477,-10.2459,-30.9619,-0.52063,0.638256,16.9736,0.478578,3.5668,-0.211131,-0.45999,6.55621,0.0500293,-0.443285,0.00682497,-0.0228973,0.0750122,0.00918579,0.0559717,0.0123148,0,0,0,0,0,0,0,0,0,0.0315012,0.0659084,0.00839333,0.434709,-0.00179895,-0.0075746,-0.0181589,-0.0174208,-0.138846,-0.439165,0.0158692,-0.020286
54,0.000344161,0.00118661,-0.0864851,0.687156,0.0366502,0.0366502,0.0366502,0.0366502,0.0366502,0.0366502,0.0366502,0.0366502,0.0366502,0.616063,-0.5491,0.0220041,0.825547,0.00118661,-0.0864851,0.687156,0.0289612,-0.0276699,-0.0780792,0.0390674,-0.085032,0.0791274,0.0366502,1.56037,0.802088,0.880395,-4.8583,2.27506,0.520925,-18.6178,-3.07834,0.507224,8.18236,0.762691,16.2282,-3.23758,0.0557647,1.70248,0.0289612,-0.0276699,-0.0780792,0.0390674,-0.085032,0.0791274,0,0,0,0,0,0,0,0,0,0.0188576,0.00532684,0.00782363,0.881958,0.000535069,0.000703626,0.00011163,0.0718727,-0.523696,-0.877529,-0.0650961,-0.00194537
55,0.000344161,0.814991,-0.376503,2.22464,0.0167769,0.0167769,0.0167769,0.0167769,0.0167769,0.0167769,0.0167769,0.0167769,0.0167769,0.962947,0.590665,-0.0832231,1.13273,0.814991,-0.376503,2.22464,0.27359,0.134521,0.015419,-0.023138,0.117747,0.0546272,0.0167769,-1.00865,26.2399,0.85861,-17.3806,-1.90201,-0.356073,-2.94606,-25.1528,1.56993,-5.19862,0.310152,-0.66998,22.9557,-0.0836012,1.3914,0.27359,0.134521,0.015419,-0.023138,0.117747,0.0546272,0,0,0,0,0,0,0,0,0,-0.0798135,-0.00457849,0.0125891,0.954914,0.0079911,-0.00265782,0.00683079,-0.111914,-0.843281,-0.95832,0.116193,-0.00104805
56,0.000344161,0.0494909,-0.0248832,0.0790275,0.0400875,0.0400875,0.0400875,0.0400875,0.0400875,0.0400875,0.0400875,0.0400875,0.0400875,-0.0513127,0.903147,-0.0599125,0.906586,0.0494909,-0.0248832,0.0790275,0.0205536,-0.0787206,0.00587463,-0.00197339,0.0103698,-0.00628567,0.0400875,-11.9754,-9.66506,0.711713,1.60269,-1.89617,0.600246,-1.48221,11.5117,0.00171807,0.136085,-0.0634332,1.02246,-1.71389,-0.0241814,0.380719,0.0205536,-0.0787206,0.00587463,-0.00197339,0.0103698,-0.00628567,0,0,0,0,0,0,0,0,0,-0.0212863,-0.0459447,0.00119583,0.342,0.00255032,0.00513409,0.0138282,-0.0482225,-0.0919537,-0.335939,0.0476919,0.0136772
57,0.000344161,0.265341,0.0991147,1.05359,0.023664,0.023664,0.023664,0.023664,0.023664,0.023664,0.023664,0.023664,0.023664,0.87197,0.96129,-0.076336,1.30009,0.265341,0.0991147,1.05359,0.299759,-0.0567965,-0.0446243,-0.0753491,-0.0151901,0.00493777,0.023664,-3.28149,26.1337,0.171833,-0.803974,-4.7511,-0.503572,-0.329542,-21.6479,0.0430882,-1.31296,0.0564304,-0.223624,2.01782,-0.0829726,-0.500426,0.299759,-0.0567965,-0.0446243,-0.0753491,-0.0151901,0.00493777,0,0,0,0,0,0,0,0,0,-0.0700646,-0.0113409,0.00175411,0.912683,0.00866682,-0.000603739,0.00340642,-0.122076,-0.714172,-0.918165,0.122488,0.00317755
58,0.000344161,0.0086937,-0.0217006,0.311428,0.0940544,0.0940544,0.0940544,0.0940544,0.0940544,0.0940544,0.0940544,0.0940544,0.0940544,0.790726,0.575006,0.00594562,0.977709,0.0086937,-0.0217006,0.311428,0.031141,-0.0663346,0.0362625,0.0565976,-0.0313272,0.0616578,0.0940544,0.346123,-1.09903,-0.0836957,0.215815,0.0798857,-1.06847,-2.92633,1.01045,-0.0286509,0.091383,0.450439,-0.0284723,-0.285497,0.0413556,2.64338,0.031141,-0.0663346,0.0362625,0.0565976,-0.0313272,0.0616578,0,0,0,0,0,0,0,0,0,0.00456038,0.00129991,-0.000494925,0.923752,-0.00111035,-0.00100538,-0.000446679,-0.087824,-0.681469,-0.934074,0.0920151,-7.13458e-05
59,0.000344161,-0.0747337,-5.126e-05,0.778921,0.0471315,0.0471315,0.0471315,0.0471315,0.0471315,0.0471315,0.0471315,0.0471315,0.0471315,0.897522,-0.174397,0.0528685,0.915835,-0.0747337,-5.126e-05,0.778921,0.0310071,-0.131355,-0.0361786,0.184006,0.0362844,0.044802,0.0471315,0.399917,-0.486986,0.831186,1.29594,-4.22594,-0.258639,-4.75903,4.78766,-2.76856,-5.29269,-0.323902,2.65465,3.9968,0.205436,1.32546,0.0310071,-0.131355,-0.0361786,0.184006,0.0362844,0.044802,0,0,0,0,0,0,0,0,0,0.0524512,0.00435085,0.00649495,1.00934,0.00122904,0.000503362,-0.0107266,0.0431954,-0.81439,-1.01229,-0.0460716,0.00344742
60,0.000344161,0.07901,-0.186766,1.56063,0.0103126,0.0103126,0.0103126,0.0103126,0.0103126,0.0103126,0.0103126,0.0103126,0.0103126,0.634605,-0.50788,0.0896874,0.817747,0.07901,-0.186766,1.56063,0.0251178,-0.488499,0.0559311,-0.283672,0.158142,0.187655,0.0103126,5.28957,32.2172,3.91454,-5.81135,-10.0329,0.183189,-4.91952,-22.2633,2.83492,33.6686,0.281185,4.99647,-27.6705,0.111202,-1.63757,0.0251178,-0.488499,0.0559311,-0.283672,0.158142,0.187655,0,0,0,0,0,0,0,0,0,0.0801061,0.0171525,0.032736,0.894045,0.00536484,0.00152445,0.00333533,0.0658713,-0.543061,-0.891654,-0.061478,-0.00792663
61,0.000344161,0.197217,0.00862922,0.617599,0.0655686,0.0655686,0.0655686,0.0655686,0.0655686,0.0655686,0.0655686,0.0655686,0.0655686,0.934431,-0.627183,0.00427209,1.12541,0.197217,0.00862922,0.617599,0.0442457,-0.0219823,-0.0622787,0.0205021,0.0479269,0.0978375,0.0655686,0.0867635,-2.10894,0.0453355,-0.144264,0.0474091,-1.37959,1.29232,1.86431,0.01449,0.105874,-1.11252,-2.30405,0.029761,0.0796768,0.394135,0.0442457,-0.0219823,-0.0622787,0.0205021,0.0479269,0.0978375,0,0,0,0,0,0,0,0,0,0.0034373,0.000258682,0.000331081,0.936075,-0.000713067,-9.75484e-05,-0.000221404,0.107146,-0.810164,-0.950494,-0.117792,0.000491207
62,0.000344161,-0.0299029,-0.00151649,0.0242504,0.0742063,0.0742063,0.0742063,0.0742063,0.0742063,0.0742063,0.0742063,0.0742063,0.0742063,-0.582901,-0.861607,0.0257937,1.04058,-0.0299029,-0.00151649,0.0242504,0.0387412,-0.00891984,0.0212722,0.0241466,0.0224098,-0.00117475,0.0742063,2.12944,5.44828,0.169463,-0.305915,-0.513073,0.725586,-0.159527,-4.90531,0.0572644,0.760574,0.061517,-0.586156,-0.453142,0.00790381,0.721432,0.0387412,-0.00891984,0.0212722,0.0241466,0.0224098,-0.00117475,0,0,0,0,0,0,0,0,0,0.00074292,0.00823745,0.00054706,0.0519577,-3.37753e-05,0.00105837,-0.00219639,0.014074,-0.00263032,-0.0444891,-0.0132347,-0.0025698
63,0.000344161,-0.0221624,-0.000308335,0.069559,0.0677223,0.0677223,0.0677223,0.0677223,0.0677223,0.0677223,0.0677223,0.0677223,0.0677223,-0.306118,-0.905178,0.0322777,0.956084,-0.0221624,-0.000308335,0.069559,0.0622367,-0.0257106,-0.00901413,0.0158421,-0.0128887,0.0100926,0.0677223,4.61983,7.589,0.191815,0.194103,-0.274973,1.01953,0.324564,-7.29186,-0.0545322,-0.842136,-0.0784219,-0.566096,0.648341,0.00973671,0.171972,0.0622367,-0.0257106,-0.00901413,0.0158421,-0.0128887,0.0100926,0,0,0,0,0,0,0,0,0,0.00495595,0.0180297,0.000372643,0.172194,0.000574565,0.0012884,-0.00557407,0.0328904,-0.0287295,-0.162089,-0.0338035,-0.00528147
64,0.000344161,-0.0453757,-0.00694835,0.0533535,0.087354,0.087354,0.087354,0.087354,0.087354,0.087354,0.087354,0.087354,0.087354,-0.333177,0.793567,-0.012646,0.860764,-0.0453757,-0.00694835,0.0533535,0.0120832,-0.0128342,0.0474777,0.00464562,0.0116978,0.00401741,0.087354,-1.75761,-2.87006,-0.0138496,-0.068857,1.27798,0.682831,0.119592,1.63746,0.0504968,-0.287766,0.156843,-0.365835,0.363572,0.000801552,0.19289,0.0120832,-0.0128342,0.0474777,0.00464562,0.0116978,0.00401741,0,0,0,0,0,0,0,0,0,-0.00265379,-0.00678276,-0.000375326,0.159348,-0.000197554,0.000108488,0.0022206,-0.0116615,-0.0274682,-0.152045,0.0133469,0.00196898
65,0.000344161,-0.013618,0.0321256,0.0668597,0.067892,0.067892,0.067892,0.067892,0.067892,0.067892,0.067892,0.067892,0.067892,-0.244071,-0.812501,0.032108,0.848976,-0.013618,0.0321256,0.0668597,0.0430601,-0.0209255,0.0251713,0.0194687,-0.00847542,0.0216445,0.067892,5.08043,7.8,0.0564244,0.554956,-2.99523,0.670142,-0.627605,-4.79115,-0.145327,-0.808843,-0.0740231,0.302526,0.221761,0.0107454,0.258219,0.0430601,-0.0209255,0.0251713,0.0194687,-0.00847542,0.0216445,0,0,0,0,0,0,0,0,0,0.00612383,0.0198136,-0.000249318,0.208894,7.03018e-05,0.000604308,-0.00643317,0.0182015,-0.0425009,-0.201941,-0.0190265,-0.00564193
66,0.000344161,0.0383458,0.00902081,-0.11048,0.0169761,0.0169761,0.0169761,0.0169761,0.0169761,0.0169761,0.0169761,0.0169761,0.0169761,-0.556906,0.221494,0.0792748,0.604556,0.0383458,0.00902081,-0.11048,0.054556,-0.0304798,0.056915,-0.186992,0.0338916,-0.0124567,0.0169761,0.371732,-12.3273,0.699397,-10.0349,8.07103,-0.0914901,0.00339667,4.21789,1.42256,1.36723,-0.188729,-0.222452,8.65868,-0.00455429,0.329535,0.054556,-0.0304798,0.056915,-0.186992,0.0338916,-0.0124567,0,0,0,0,0,0,0,0,0,0.000244066,0.00023354,0.00726143,0.0115595,0.000306806,-0.000572257,0.00427995,0.00996535,-0.00115152,-0.0119053,-0.0115137,-0.00198296
67,0.000344161,0.385592,0.556904,2.5248,0.0164625,0.0164625,0.0164625,0.0164625,0.0164625,0.0164625,0.0164625,0.0164625,0.0164625,0.890433,-0.538114,-0.0835375,1.04375,0.385592,0.556904,2.5248,0.229013,-0.31006,-0.0325241,-0.0227475,0.0799389,0.00122285,0.0164625,-2.62477,20.498,-1.81455,7.19072,-2.47478,-0.28555,-0.224402,-18.4088,1.43436,5.7507,-0.214692,-0.259181,-13.4983,-0.0916506,-2.04122,0.229013,-0.31006,-0.0325241,-0.0227475,0.0799389,0.00122285,0,0,0,0,0,0,0,0,0,-0.0797878,-0.0107389,-0.0131835,0.953023,-0.00945842,-0.00806261,0.00829795,0.10366,-0.778189,-0.956203,-0.105007,0.000787754
68,0.000344161,-0.202037,-0.144874,1.20432,0.0201331,0.0201331,0.0201331,0.0201331,0.0201331,0.0201331,0.0201331,0.0201331,0.0201331,0.773046,-0.31405,0.0454261,0.835639,-0.202037,-0.144874,1.20432,0.00163089,-0.177985,0.00331116,-0.051944,-0.0739436,0.105441,0.0201331,0.476242,14.3933,0.46495,10.1749,-10.1092,0.417396,-15.916,-4.08208,-0.0550967,1.80886,1.31163,12.736,-11.8389,0.139016,1.97573,0.00163089,-0.177985,0.00331116,-0.051944,-0.0739436,0.105441,0,0,0,0,0,0,0,0,0,0.0435025,0.00167941,0.0100172,0.972765,0.00209077,-0.00714752,-0.00124515,0.0687432,-0.683633,-0.968558,-0.0563663,0.000512339
69,0.000344161,1.56518,-0.62516,14.9086,0.000802158,0.000802158,0.000802158,0.000802158,0.000802158,0.000802158,0.000802158,0.000802158,0.000802158,0.469899,-0.610056,-0.0836833,0.774581,1.56518,-0.62516,14.9086,-2.43149,-2.15,0.932602,-0.186515,0.422284,0.398874,0.000802158,-7.14771,-496.693,-4.00509,-268.856,483.628,0.154381,45.7168,11.4999,-2.25865,261.898,0.12079,-60.1257,7.5832,-0.0312299,-0.499652,-2.43149,-2.15,0.932602,-0.186515,0.422284,0.398874,0,0,0,0,0,0,0,0,0,-0.0678422,-0.0344459,-0.051037,0.798456,-0.00577685,-0.010514,0.00122424,0.052787,-0.398707,-0.787586,-0.0473562,0.0152883
70,0.000344161,-0.519135,-0.0309067,4.86898,0.00723271,0.00723271,0.00723271,0.00723271,0.00723271,0.00723271,0.00723271,0.00723271,0.00723271,0.910472,0.348976,0.0927673,0.979463,-0.519135,-0.0309067,4.86898,-0.202474,-0.267736,0.0144348,0.11274,-0.0791082,0.152824,0.00723271,2.08014,-13.2579,-2.01496,11.3578,-0.713314,-0.109341,-0.166429,14.4904,-3.20062,9.77322,0.151159,0.0988769,-21.1001,0.168291,-4.80142,-0.202474,-0.267736,0.0144348,0.11274,-0.0791082,0.152824,0,0,0,0,0,0,0,0,0,0.0901625,0.0104142,-0.0154007,0.987909,-0.00761225,-0.00742624,-0.0144135,-0.0805316,-0.81655,-0.988859,0.0812521,0.00263146
71,0.000344161,-0.0739384,-0.025137,0.0718229,0.0521003,0.0521003,0.0521003,0.0521003,0.0521003,0.0521003,0.0521003,0.0521003,0.0521003,-0.426097,0.9479,-0.0239756,1.03954,-0.0739384,-0.025137,0.0718229,0.00118247,-0.0244941,-0.0302086,0.0080556,-0.00208569,-0.00124621,0.0521003,-2.87192,-4.92066,0.105091,-0.0167171,-1.24922,1.31849,0.408687,6.24382,0.0032769,-0.16996,0.0343555,-0.629871,0.211814,0.000698041,0.149361,0.00118247,-0.0244941,-0.0302086,0.0080556,-0.00208569,-0.00124621,0,0,0,0,0,0,0,0,0,-0.00337885,-0.0110538,-0.000558592,0.113567,0.000432631,0.00136457,0.00335661,-0.0320168,-0.0120702,-0.100684,0.0323395,0.00329721
72,0.000344161,0.410889,0.0801382,1.91341,0.00900901,0.00900901,0.00900901,0.00900901,0.00900901,0.00900901,0.00900901,0.00900901,0.00900901,0.315143,-0.683037,0.037696,0.753177,0.410889,0.0801382,1.91341,0.0616392,0.133695,0.236809,-0.0358791,0.0421433,0.0235205,0.00900901,7.88447,-10.1275,2.05991,3.74955,10.6818,0.38719,5.38931,-0.965116,0.632525,-2.90525,0.255316,-8.34469,-0.924438,0.0682098,1.04197,0.0616392,0.133695,0.236809,-0.0358791,0.0421433,0.0235205,0,0,0,0,0,0,0,0,0,0.0248256,0.0297677,0.0165776,0.670732,0.000780275,0.00535848,-0.00697963,0.0429069,-0.282317,-0.664492,-0.0399323,-0.00950421
73,0.000344161,-0.12007,-0.0147488,0.122493,0.048191,0.048191,0.048191,0.048191,0.048191,0.048191,0.048191,0.048191,0.048191,-0.355789,-0.684212,0.051809,0.772927,-0.12007,-0.0147488,0.122493,0.0524733,0.0357011,0.0368938,0.0173694,-0.0130121,0.0257936,0.048191,6.28695,10.8625,-0.766409,-2.35572,-8.45272,0.170856,-1.75393,-2.28972,-0.255976,1.28406,-0.102742,1.48906,1.08641,0.0152888,0.142372,0.0524733,0.0357011,0.0368938,0.0173694,-0.0130121,0.0257936,0,0,0,0,0,0,0,0,0,0.00667496,0.0246103,-0.0054582,0.139824,-0.000766451,-0.00184888,-0.00827984,-0.00602045,-0.0244937,-0.137747,0.00486291,-0.00688139
74,0.000344161,-0.0593185,0.0135682,0.595848,0.0248489,0.0248489,0.0248489,0.0248489,0.0248489,0.0248489,0.0248489,0.0248489,0.0248489,0.438871,0.842591,-0.0751512,0.953003,-0.0593185,0.0135682,0.595848,0.0644703,-0.0194743,0.0313187,0.0202086,0.00507545,0.0257316,0.0248489,-13.0985,19.2173,1.49853,-1.09225,-6.96299,-0.365497,-0.867794,-12.195,-0.32062,3.30003,-0.0576699,0.19006,-2.22135,-0.0513083,0.0818858,0.0644703,-0.0194743,0.0313187,0.0202086,0.00507545,0.0257316,0,0,0,0,0,0,0,0,0,-0.0556897,-0.0497546,0.00778692,0.733269,0.00579399,0.00700364,0.0139133,-0.0827595,-0.361202,-0.736611,0.0822335,0.0152875
75,0.000344161,-0.194216,-0.165599,2.71531,0.00490883,0.00490883,0.00490883,0.00490883,0.00490883,0.00490883,0.00490883,0.00490883,0.00490883,0.39927,0.939415,-0.0950912,1.02516,-0.194216,-0.165599,2.71531,-0.640082,0.108771,-0.00543213,0.0287812,0.0350456,0.0987439,0.00490883,-16.7147,22.2008,0.954507,-1.0023,-13.0387,-0.0399628,-0.289337,-8.96788,-0.0401595,2.32236,-0.00247783,0.191719,-1.15446,-0.0307633,-2.61769,-0.640082,0.108771,-0.00543213,0.0287812,0.0350456,0.0987439,0,0,0,0,0,0,0,0,0,-0.0670742,-0.0668146,0.0034399,0.698907,0.00893978,0.00719289,0.0199026,-0.0980062,-0.324423,-0.699361,0.0983319,0.0202994
76,0.000344161,-0.109175,0.0492017,0.102634,0.0153263,0.0153263,0.0153263,0.0153263,0.0153263,0.0153263,0.0153263,0.0153263,0.0153263,-0.489742,0.706342,0.0846737,0.863675,-0.109175,0.0492017,0.102634,-0.078191,-0.0271688,0.0338573,0.180321,0.00106126,-0.0380633,0.0153263,8.32268,14.7374,0.47177,3.18614,-8.707,0.119421,0.00609997,-5.92126,-0.08823,0.538926,0.0639725,-0.263108,-3.77426,0.00423152,0.154374,-0.078191,-0.0271688,0.0338573,0.180321,0.00106126,-0.0380633,0,0,0,0,0,0,0,0,0,0.00658612,0.0316423,0.00288188,0.0837976,-0.00038282,0.00156413,-0.00911963,-0.00129847,-0.0104699,-0.0822648,0.00194881,-0.00974925
77,0.000344161,-4.27345,-1.49711,31.7276,0.00111285,0.00111285,0.00111285,0.00111285,0.00111285,0.00111285,0.00111285,0.00111285,0.00111285,0.929836,0.601435,0.0988871,1.1118,-4.27345,-1.49711,31.7276,-0.0829784,-1.03987,0.0742569,0.423298,-0.0394135,0.339196,0.00111285,2.1107,-18.3945,-0.912065,13.3449,2.77055,-0.0220316,-0.0106983,19.8974,-1.59554,5.22139,0.00977892,-0.0382549,-17.0692,0.0842504,-31.6786,-0.0829784,-1.03987,0.0742569,0.423298,-0.0394135,0.339196,0,0,0,0,0,0,0,0,0,0.0925551,0.00866294,-0.0132849,0.953406,-0.0110837,-0.00623441,-0.0073369,-0.112505,-0.810338,-0.952883,0.112208,0.000641543
78,0.000344161,0.638458,0.663337,0.762246,0.030213,0.030213,0.030213,0.030213,0.030213,0.030213,0.030213,0.030213,0.030213,0.947226,-0.69193,-0.069787,1.17511,0.638458,0.663337,0.762246,0.151348,-0.113753,0.0141678,-0.0679829,-0.0484877,0.0988913,0.030213,-1.00172,25.3509,-0.764087,10.8404,-2.22609,-0.662898,-2.83574,-23.7633,0.913755,4.49039,-0.415374,-1.16178,-15.9942,-0.0752357,3.23528,0.151348,-0.113753,0.0141678,-0.0679829,-0.0484877,0.0988913,0,0,0,0,0,0,0,0,0,-0.0655713,-0.00427385,-0.00806079,0.936729,-0.00911323,-0.000717617,0.00420688,0.117381,-0.814524,-0.943217,-0.12202,9.62922e-05
79,0.000344161,-0.0355134,-0.0188087,0.24487,0.0895738,0.0895738,0.0895738,0.0895738,0.0895738,0.0895738,0.0895738,0.0895738,0.0895738,0.670258,-0.697968,0.0104262,0.967736,-0.0355134,-0.0188087,0.24487,0.049666,0.00460475,0.00827789,0.0518538,-0.027812,0.0871599,0.0895738,1.00848,-2.42522,0.215343,-0.403626,0.579637,-1.04559,-1.80125,1.88109,-0.0133797,-0.0595958,-0.169268,-0.312844,0.482031,0.0349879,1.86922,0.049666,0.00460475,0.00827789,0.0518538,-0.027812,0.0871599,0,0,0,0,0,0,0,0,0,0.00848649,0.00388447,0.00155247,0.867249,-0.000132957,0.000647012,-0.0012139,0.0894549,-0.559463,-0.877622,-0.0914257,-0.000795534
80,0.000344161,-0.0382085,0.063434,-0.0406103,0.0911508,0.0911508,0.0911508,0.0911508,0.0911508,0.0911508,0.0911508,0.0911508,0.0911508,-0.627061,0.54902,0.00884922,0.83349,-0.0382085,0.063434,-0.0406103,-0.00335577,-0.0100961,0.0321949,-0.0192901,-0.00112408,-0.00556426,0.0911508,0.541098,1.39053,0.0821662,0.602696,-0.526428,0.0272789,-3.19626,-0.825893,0.117293,-0.0647132,0.348431,-1.18592,-0.601417,0.0256137,4.42279,-0.00335577,-0.0100961,0.0321949,-0.0192901,-0.00112408,-0.00556426,0,0,0,0,0,0,0,0,0,-0.000278488,0.00193203,0.000448523,0.0349058,-0.000278512,0.000272177,-0.00026667,0.00601909,-0.00196058,-0.0343111,-0.00254603,-0.00065644
81,0.000344161,-0.0390186,-0.101418,0.553323,0.0743161,0.0743161,0.0743161,0.0743161,0.0743161,0.0743161,0.0743161,0.0743161,0.0743161,0.925684,0.265233,-0.0251428,0.963261,-0.0390186,-0.101418,0.553323,0.100185,-0.0895286,0.0284958,-0.150876,-0.00558233,0.116571,0.0743161,-0.202898,5.49854,0.493063,-5.52358,0.676776,-0.788416,-6.35697,-6.1363,1.49158,-3.25325,0.993134,2.48329,8.87825,-0.00286551,3.32036,0.100185,-0.0895286,0.0284958,-0.150876,-0.00558233,0.116571,0,0,0,0,0,0,0,0,0,-0.026167,-0.00207322,0.00473776,0.997575,0.000716155,-0.000702411,0.00514388,-0.0585666,-0.8382,-1.00517,0.0684421,-0.000991122
82,0.000344161,0.116137,0.336022,3.12717,0.0110333,0.0110333,0.0110333,0.0110333,0.0110333,0.0110333,0.0110333,0.0110333,0.0110333,0.917681,0.76004,-0.0889667,1.19487,0.116137,0.336022,3.12717,0.336409,0.293602,-0.0271683,-0.112444,-0.0111494,-0.0890528,0.0110333,-2.41881,24.9377,0.866387,-5.6736,-3.56075,-0.212001,0.0403105,-21.4931,0.563508,-3.35846,0.0769848,-0.329244,8.69604,-0.0755255,-2.83823,0.336409,0.293602,-0.0271683,-0.112444,-0.0111494,-0.0890528,0,0,0,0,0,0,0,0,0,-0.083153,-0.00833978,0.0082956,0.931891,0.00950788,0.00330429,0.00432753,-0.117356,-0.780612,-0.934282,0.118015,0.00124931
83,0.000344161,-0.580244,0.0625073,2.3271,0.00667365,0.00667365,0.00667365,0.00667365,0.00667365,0.00667365,0.00667365,0.00667365,0.00667365,0.54658,0.982545,-0.0933264,1.12821,-0.580244,0.0625073,2.3271,-0.354015,0.129572,-0.00138092,0.0827806,0.0579643,0.135265,0.00667365,-13.1213,26.396,0.20454,-0.539312,-13.326,-0.0756468,-0.311341,-12.4898,0.00695027,-0.744602,0.0155652,0.397934,1.22141,-0.036497,-2.41369,-0.354015,0.129572,-0.00138092,0.0827806,0.0579643,0.135265,0,0,0,0,0,0,0,0,0,-0.0744891,-0.0520455,-0.000709022,0.791649,0.0103682,0.00405015,0.0157796,-0.11602,-0.429838,-0.792419,0.116755,0.0158247
84,0.000344161,0.114186,-0.00731397,0.404617,0.0400419,0.0400419,0.0400419,0.0400419,0.0400419,0.0400419,0.0400419,0.0400419,0.0400419,0.377356,0.795573,0.0599581,0.88257,0.114186,-0.00731397,0.404617,0.0116342,0.0417857,0.0102386,-0.0252419,-0.0066824,0.0411172,0.0400419,11.1909,-14.8295,-1.5167,0.383638,6.53297,-0.432327,-1.34363,8.18234,0.508179,-3.73691,-0.178835,0.523742,3.36059,0.0745989,0.415268,0.0116342,0.0417857,0.0102386,-0.0252419,-0.0066824,0.0411172,0,0,0,0,0,0,0,0,0,0.0408227,0.0423957,-0.00803181,0.694981,-0.00454608,-0.00671738,-0.011202,-0.0678111,-0.320267,-0.699202,0.0659559,-0.0130381
85,0.000344161,-0.0683556,0.0378158,0.102978,0.039426,0.039426,0.039426,0.039426,0.039426,0.039426,0.039426,0.039426,0.039426,-0.397412,0.812724,0.060574,0.906711,-0.0683556,0.0378158,0.102978,-0.000247717,0.0152106,0.0367146,0.0267419,-0.00215292,-0.00229168,0.039426,7.38113,13.3497,-0.101234,0.585928,-4.86723,0.464505,0.409603,-8.41416,-0.15089,1.17705,0.0949294,-0.567011,-1.80079,0.00855976,0.0544304,-0.000247717,0.0152106,0.0367146,0.0267419,-0.00215292,-0.00229168,0,0,0,0,0,0,0,0,0,0.00705324,0.028524,0.000231431,0.125311,-0.00119191,-0.00109166,-0.00900113,-0.0143808,-0.0187158,-0.120299,0.0153086,-0.00834904
86,0.000344161,-0.137655,-0.0427834,-0.115895,0.0326735,0.0326735,0.0326735,0.0326735,0.0326735,0.0326735,0.0326735,0.0326735,0.0326735,-0.500526,-0.967327,-0.0577437,1.09068,-0.137655,-0.0427834,-0.115895,0.0594581,-0.0126356,-0.00306845,-0.00188923,0.00852299,-0.0207446,0.0326735,-5.9742,-12.188,-0.206737,0.102615,-6.05849,1.06632,0.139937,18.3841,-0.00648016,-0.142916,0.00130397,-0.0629746,0.0830838,-0.00409459,0.0389327,0.0594581,-0.0126356,-0.00306845,-0.00188923,0.00852299,-0.0207446,0,0,0,0,0,0,0,0,0,-0.00529367,-0.0227107,0.00220958,0.077571,-0.00215265,-0.0044033,0.00682117,0.0301214,-0.00510591,-0.0669385,-0.0300231,0.00673882
87,0.000344161,0.102062,-0.0802138,0.187333,0.018802,0.018802,0.018802,0.018802,0.018802,0.018802,0.018802,0.018802,0.018802,-0.233828,0.981198,-0.0766209,1.01158,0.102062,-0.0802138,0.187333,0.154889,-0.00864375,0.0801144,-0.0408986,-0.00279045,-0.0443687,0.018802,-12.6407,-16.8895,0.214448,0.282654,-10.5865,0.731958,0.0722474,27.3739,0.00583193,-0.526913,0.0162682,-0.420888,0.324473,-0.0131044,0.161307,0.154889,-0.00864375,0.0801144,-0.0408986,-0.00279045,-0.0443687,0,0,0,0,0,0,0,0,0,-0.0172477,-0.0479156,-0.00384525,0.209967,0.00351629,0.00590329,0.0143381,-0.050597,-0.0397037,-0.201846,0.0507318,0.0142261
88,0.000344161,0.0489171,-0.024676,0.133272,0.089737,0.089737,0.089737,0.089737,0.089737,0.089737,0.089737,0.089737,0.089737,0.394939,0.809669,0.010263,0.900914,0.0489171,-0.024676,0.133272,0.0136005,-0.0257644,-0.0043869,-0.00262207,-0.00316095,0.0315221,0.089737,1.7953,-2.56821,-0.222892,0.21673,0.872324,-0.719147,-2.00154,1.64697,0.0792361,-0.546921,-0.231631,0.66922,0.354867,0.029134,1.19905,0.0136005,-0.0257644,-0.0043869,-0.00262207,-0.00316095,0.0315221,0,0,0,0,0,0,0,0,0,0.00644832,0.00679891,-0.00114711,0.703548,-0.00120039,-0.00133945,-0.00186251,-0.0731019,-0.331333,-0.710784,0.070754,-0.0019423
89,0.000344161,-0.0234969,-0.0144984,0.0581081,0.0990323,0.0990323,0.0990323,0.0990323,0.0990323,0.0990323,0.0990323,0.0990323,0.0990323,-0.229693,0.788094,0.000967658,0.820885,-0.0234969,-0.0144984,0.0581081,0.0112408,-0.0157441,0.0400009,0.0114954,0.00963831,0.00925774,0.0990323,0.130741,0.216897,0.000851482,-0.0321993,-0.0186492,0.615083,-1.32285,-0.174751,-0.00735761,0.0533749,0.0427669,0.951223,-0.00667721,0.00124823,0.313518,0.0112408,-0.0157441,0.0400009,0.0114954,0.00963831,0.00925774,0,0,0,0,0,0,0,0,0,-0.000434302,0.000529188,-3.72573e-05,0.219044,-0.00036444,-0.000111669,-0.000160033,-0.0126625,-0.0462888,-0.212493,0.0131865,-0.000128192
90,0.000344161,0.0342989,-0.0429831,0.367987,0.0352595,0.0352595,0.0352595,0.0352595,0.0352595,0.0352595,0.0352595,0.0352595,0.0352595,0.292258,0.775841,-0.0647405,0.831587,0.0342989,-0.0429831,0.367987,0.0118005,-0.0718073,0.0174408,0.0271707,-0.0104265,0.0122571,0.0352595,-13.6171,14.0985,1.7407,1.71273,-8.19799,-0.288306,-1.12183,-5.93479,-0.755779,4.02737,-0.237961,0.33702,-5.69712,-0.0495136,0.416821,0.0118005,-0.0718073,0.0174408,0.0271707,-0.0104265,0.0122571,0,0,0,0,0,0,0,0,0,-0.0417028,-0.0514444,0.00967378,0.63336,0.00314212,0.00701511,0.0129391,-0.0540862,-0.264668,-0.636069,0.0516023,0.0163958
91,0.000344161,-0.0166178,-0.0208774,-0.0271783,0.0231598,0.0231598,0.0231598,0.0231598,0.0231598,0.0231598,0.0231598,0.0231598,0.0231598,-0.627331,-0.882665,-0.0768402,1.08561,-0.0166178,-0.0208774,-0.0271783,0.0842558,-0.0640998,-0.0797739,-0.107436,0.0146753,-0.064425,0.0231598,-6.21688,-12.4095,-0.625302,1.40937,0.0415265,0.304327,3.83464,12.3846,-0.263245,-3.21199,0.0362171,-0.0303169,1.8235,-0.0928766,-3.77715,0.0842558,-0.0640998,-0.0797739,-0.107436,0.0146753,-0.064425,0,0,0,0,0,0,0,0,0,-0.00341811,-0.0229778,-0.00152975,0.0326582,-0.00139579,-0.00536427,0.0058319,0.0125207,-0.000958271,-0.0304126,-0.0120118,0.0068988
92,0.000344161,-0.13377,0.079967,0.0737799,0.0150539,0.0150539,0.0150539,0.0150539,0.0150539,0.0150539,0.0150539,0.0150539,0.0150539,-0.5214,0.416072,0.0849461,0.67245,-0.13377,0.079967,0.0737799,0.0313294,0.0451646,0.0672965,0.0731951,0.0465411,-0.000929713,0.0150539,3.49225,-11.2352,2.15688,4.20568,2.76821,-0.120331,-1.75561,8.60074,0.997971,-8.55126,-0.0792841,1.64485,4.26561,0.00349317,0.0369863,0.0313294,0.0451646,0.0672965,0.0731951,0.0465411,-0.000929713,0,0,0,0,0,0,0,0,0,0.00299048,0.0123133,0.0156739,0.0446003,0.00111904,0.00634652,5.12422e-05,0.0188103,-0.00539189,-0.0451306,-0.0191377,-0.00529177
93,0.000344161,-0.466486,0.175764,1.86092,0.00580086,0.00580086,0.00580086,0.00580086,0.00580086,0.00580086,0.00580086,0.00580086,0.00580086,0.299563,0.994199,0.0823339,1.04161,-0.466486,0.175764,1.86092,-0.0695512,-0.183398,0.241699,0.0190873,0.0531139,0.0365667,0.00580086,16.4143,-11.7417,-0.0737721,0.0917888,15.3835,0.0358288,-1.496,-3.17539,0.000103682,-0.092937,0.0161613,-0.0520741,-0.174616,0.0494916,-0.312851,-0.0695512,-0.183398,0.241699,0.0190873,0.0531139,0.0365667,0,0,0,0,0,0,0,0,0,0.0506589,0.0627429,0.00422943,0.621912,-0.00889936,-0.00680112,-0.0188848,-0.102774,-0.252826,-0.619137,0.103466,-0.0185504
94,0.000344161,0.0191364,-0.115043,2.67379,0.0120881,0.0120881,0.0120881,0.0120881,0.0120881,0.0120881,0.0120881,0.0120881,0.0120881,0.92507,0.916176,-0.0879119,1.30494,0.0191364,-0.115043,2.67379,0.367055,0.0206293,0.0510712,-0.128328,-0.0222645,-0.0477521,0.0120881,-2.28902,26.2443,0.290042,-2.20661,-3.44897,-0.245524,-0.0992335,-22.8145,0.162513,-1.96954,0.0435411,-0.18408,4.2912,-0.076791,-2.39048,0.367055,0.0206293,0.0510712,-0.128328,-0.0222645,-0.0477521,0,0,0,0,0,0,0,0,0,-0.0813145,-0.00728791,0.0036149,0.92369,0.00992049,-0.000508182,0.00249283,-0.122055,-0.768678,-0.925634,0.122268,0.0016992
95,0.000344161,-0.0407591,-0.105274,0.864673,0.0224968,0.0224968,0.0224968,0.0224968,0.0224968,0.0224968,0.0224968,0.0224968,0.0224968,0.619594,-0.558824,0.0775032,0.837966,-0.0407591,-0.105274,0.864673,-0.00775337,-0.28085,-0.0110626,-0.0422635,-0.00773573,0.110215,0.0224968,6.45945,-2.52925,3.29847,-12.4047,7.21602,0.0800679,-7.29556,-4.64601,1.43436,22.0785,0.23987,6.64781,-9.56852,0.110838,-0.216927,-0.00775337,-0.28085,-0.0110626,-0.0422635,-0.00773573,0.110215,0,0,0,0,0,0,0,0,0,0.0675653,0.0229529,0.0241579,0.877084,0.00446925,0.00601833,-0.00234511,0.0687242,-0.526433,-0.876394,-0.0664029,-0.00820033
96,0.000344161,-0.0023303,-0.00128198,0.139124,0.0532071,0.0532071,0.0532071,0.0532071,0.0532071,0.0532071,0.0532071,0.0532071,0.0532071,0.0201964,-0.946793,-0.0247145,0.947331,-0.0023303,-0.00128198,0.139124,0.0495225,-0.00321701,-0.0825691,0.00356519,-0.00787878,0.0380635,0.0532071,-5.11303,-2.48761,-0.227408,-0.319068,-3.31001,1.08903,-2.84573,5.79995,-0.0148577,-0.46767,0.0965033,2.24643,0.788021,-0.00781829,0.46018,0.0495225,-0.00321701,-0.0825691,0.00356519,-0.00787878,0.0380635,0,0,0,0,0,0,0,0,0,-0.0104664,-0.0194969,0.000853839,0.397933,-0.00231692,-0.00316009,0.00576418,0.067201,-0.114013,-0.387869,-0.0663148,0.00597186
97,0.000344161,-0.0805836,-0.0908488,-0.182881,0.016687,0.016687,0.016687,0.016687,0.016687,0.016687,0.016687,0.016687,0.016687,-0.637858,-0.911463,-0.083313,1.1156,-0.0805836,-0.0908488,-0.182881,0.0466628,-0.170992,-0.22966,-0.172763,-0.0121046,-0.0810544,0.016687,-6.60178,-13.941,-0.642645,1.41609,-2.7093,0.240363,5.99089,16.7309,-0.198968,-3.35716,0.0203773,0.146301,2.03191,-0.117111,-5.95431,0.0466628,-0.170992,-0.22966,-0.172763,-0.0121046,-0.0810544,0,0,0,0,0,0,0,0,0,-0.0033156,-0.0245544,-0.00121015,0.025371,-0.00159129,-0.00692623,0.00636251,0.0134637,-0.000344813,-0.0252639,-0.0133809,0.00723034
98,0.000344161,0.0460548,0.0252531,0.152354,0.0355664,0.0355664,0.0355664,0.0355664,0.0355664,0.0355664,0.0355664,0.0355664,0.0355664,0.033397,0.935924,-0.0644336,0.938733,0.0460548,0.0252531,0.152354,0.0541005,-0.0429319,0.00728607,-0.00693607,0.015223,-0.00929546,0.0355664,-13.539,-5.78036,0.727348,0.83665,-7.49414,0.570609,-1.9795,13.2284,-0.0372084,1.22791,-0.0703565,1.4394,-2.08981,-0.0292854,0.387745,0.0541005,-0.0429319,0.00728607,-0.00693607,0.015223,-0.00929546,0,0,0,0,0,0,0,0,0,-0.0270904,-0.0517695,0.000585168,0.407349,0.00376873,0.006259,0.0154342,-0.0637057,-0.121423,-0.40157,0.0631543,0.015462
99,0.000344161,-0.120588,-0.00559288,0.308541,0.0672197,0.0672197,0.0672197,0.0672197,0.0672197,0.0672197,0.0672197,0.0672197,0.0672197,0.630973,-0.808499,0.0327803,1.0261,-0.120588,-0.00559288,0.308541,0.080362,-0.0166201,-0.000999451,0.0476438,-0.0176725,0.0815957,0.0672197,3.81017,-9.23096,0.587295,-0.716662,2.49453,-0.999412,-1.18747,6.85701,0.0434899,0.186718,-0.0615193,-0.510911,0.535537,0.066942,1.38984,0.080362,-0.0166201,-0.000999451,0.0476438,-0.0176725,0.0815957,0,0,0,0,0,0,0,0,0,0.0268996,0.014687,0.00331888,0.838376,0.0021997,0.00238787,-0.00430994,0.0988357,-0.51508,-0.84838,-0.0996276,-0.00402293
100,0.000344161,0.0162003,-0.0204495,-0.00497612,0.0662745,0.0662745,0.0662745,0.0662745,0.0662745,0.0662745,0.0662745,0.0662745,0.0662745,-0.263202,-0.745235,-0.0337255,0.791067,0.0162003,-0.0204495,-0.00497612,0.0347211,0.0088559,0.0220318,0.0245736,-0.0117452,-0.00183403,0.0662745,-5.04361,-7.98404,0.203467,0.119016,5.31172,0.378839,-1.95023,2.65612,0.19402,-0.0766526,-0.0432742,1.66574,-0.0219137,-0.00816433,0.289464,0.0347211,0.0088559,0.0220318,0.0245736,-0.0117452,-0.00183403,0,0,0,0,0,0,0,0,0,-0.00715029,-0.0195056,0.00303465,0.194674,-0.000647822,-0.000911421,0.00663177,0.00421209,-0.0395538,-0.190665,-0.00476229,0.00548881
101,0.000344161,-0.182085,0.801795,4.03001,0.00743156,0.00743156,0.00743156,0.00743156,0.00743156,0.00743156,0.00743156,0.00743156,0.00743156,0.898764,0.534315,-0.0925684,1.04969,-0.182085,0.801795,4.03001,0.116221,0.513448,-0.0376358,0.0571307,-0.0532112,-0.081494,0.00743156,-2.62327,20.6752,1.7674,-8.46487,-2.7401,-0.121656,-0.0530255,-17.753,1.5178,-5.91637,0.0899913,-0.150812,13.5794,-0.0659749,-3.82617,0.116221,0.513448,-0.0376358,0.0571307,-0.0532112,-0.081494,0,0,0,0,0,0,0,0,0,-0.0890309,-0.0112895,0.0147193,0.957156,0.00834523,0.00808925,0.00912031,-0.102428,-0.787916,-0.958749,0.102796,0.000508334
102,0.000344161,-0.0475736,-0.0575005,0.0163353,0.0497231,0.0497231,0.0497231,0.0497231,0.0497231,0.0497231,0.0497231,0.0497231,0.0497231,-0.579104,0.344461,0.0502769,0.675679,-0.0475736,-0.0575005,0.0163353,0.0172771,-0.0357945,0.0426993,0.00888926,0.0687172,-0.00270706,0.0497231,1.41769,-5.07123,0.969507,2.13292,2.47901,-0.241982,-1.84525,2.6398,0.684838,-1.28717,0.0171475,2.06247,-0.788249,0.020563,-0.233558,0.0172771,-0.0357945,0.0426993,0.00888926,0.0687172,-0.00270706,0,0,0,0,0,0,0,0,0,0.000595458,0.00469804,0.00639348,0.023751,0.000265306,0.00294365,0.000991848,0.0122822,-0.00215296,-0.0257439,-0.0114235,-0.00238751
103,0.000344161,-0.0742354,0.0259168,0.288407,0.0843851,0.0843851,0.0843851,0.0843851,0.0843851,0.0843851,0.0843851,0.0843851,0.0843851,0.815443,0.82787,0.0156149,1.16214,-0.0742354,0.0259168,0.288407,0.0175822,-0.044253,0.0620193,0.0587744,-0.0350294,0.0623775,0.0843851,0.957939,-5.31062,-0.170496,0.375818,0.831692,-1.3305,-1.48244,4.55317,-0.0228379,0.173471,0.237434,-1.23511,-0.575206,0.0668994,2.42915,0.0175822,-0.044253,0.0620193,0.0587744,-0.0350294,0.0623775,0,0,0,0,0,0,0,0,0,0.0132216,0.00356137,-0.000833508,0.900581,-0.00232443,-0.00131398,-0.00113655,-0.111403,-0.678086,-0.913266,0.113427,-0.000669848
104,0.000344161,0.143914,0.0134587,0.125315,0.0302581,0.0302581,0.0302581,0.0302581,0.0302581,0.0302581,0.0302581,0.0302581,0.0302581,0.0317485,-0.862795,-0.0697419,0.866191,0.143914,0.0134587,0.125315,0.169208,0.0710837,-0.0290222,-0.0230327,-0.0109262,0.0141153,0.0302581,-14.909,-7.08093,-1.07926,-2.24114,0.207146,0.230173,-1.61857,6.72987,-0.176311,-2.51354,0.147428,1.23099,4.74122,-0.0322106,0.262265,0.169208,0.0710837,-0.0290222,-0.0230327,-0.0109262,0.0141153,0,0,0,0,0,0,0,0,0,-0.029083,-0.0564407,-0.00257493,0.40736,-0.00403463,-0.00750679,0.0162617,0.0473868,-0.123824,-0.405349,-0.0460218,0.0171679
105,0.000344161,0.1774,-0.184426,1.39635,0.0133762,0.0133762,0.0133762,0.0133762,0.0133762,0.0133762,0.0133762,0.0133762,0.0133762,0.516564,0.622125,0.0866238,0.813254,0.1774,-0.184426,1.39635,-0.0106728,0.312689,0.107948,-0.0521998,-0.0402112,0.094408,0.0133762,10.7372,-17.0415,-4.46687,19.8432,27.3249,0.104005,-4.28025,-10.4608,1.99848,-31.9786,-0.172734,4.01808,12.3198,0.09007,-1.13418,-0.0106728,0.312689,0.107948,-0.0521998,-0.0402112,0.094408,0,0,0,0,0,0,0,0,0,0.0702063,0.0387971,-0.0315835,0.81707,-0.00571724,-0.00995831,-0.00510386,-0.0571007,-0.436553,-0.81495,0.0549713,-0.0139129
106,0.000344161,0.094696,0.0431917,0.731906,0.0272735,0.0272735,0.0272735,0.0272735,0.0272735,0.0272735,0.0272735,0.0272735,0.0272735,0.723133,0.910913,0.0727265,1.16532,0.094696,0.0431917,0.731906,0.11694,-0.00724661,0.035408,0.0342439,-0.019166,0.0144641,0.0272735,6.51826,-24.3994,-0.634638,1.45676,6.41631,-0.567048,-0.578338,17.8884,0.00612065,-0.24729,0.0565623,-0.100641,-1.25266,0.111238,-0.0529274,0.11694,-0.00724661,0.035408,0.0342439,-0.019166,0.0144641,0,0,0,0,0,0,0,0,0,0.0625213,0.0253284,-0.00292095,0.874444,-0.00885741,-0.0034979,-0.00764579,-0.114434,-0.586005,-0.879761,0.114808,-0.0072191
107,0.000344161,-0.241901,-0.0708401,0.389197,0.0446142,0.0446142,0.0446142,0.0446142,0.0446142,0.0446142,0.0446142,0.0446142,0.0446142,0.626008,0.946719,-0.0553858,1.13632,-0.241901,-0.0708401,0.389197,0.0693977,-0.0151632,0.0154495,0.0316983,-0.0173016,0.0365636,0.0446142,-6.80717,16.5303,0.357591,-0.616599,-6.23058,-0.650039,-1.3299,-10.0578,-0.00617528,0.402354,0.0387403,0.270505,0.285085,-0.0557389,0.670203,0.0693977,-0.0151632,0.0154495,0.0316983,-0.0173016,0.0365636,0,0,0,0,0,0,0,0,0,-0.0467442,-0.0259218,0.0012533,0.830948,0.00581998,0.00217097,0.00789465,-0.11445,-0.498318,-0.837294,0.114664,0.00767116
108,0.000344161,0.774828,-0.528871,3.91824,0.00864878,0.00864878,0.00864878,0.00864878,0.00864878,0.00864878,0.00864878,0.00864878,0.00864878,0.855883,0.283132,-0.0913512,0.906115,0.774828,-0.528871,3.91824,-0.200904,0.290739,-0.0834503,0.44708,0.0991035,-0.0377709,0.00864878,-1.67683,-2.12178,1.74665,5.06845,6.68194,-0.0519777,-0.751889,-5.33499,2.92285,-8.47141,0.0271236,0.627011,3.93183,-0.0718006,-3.79336,-0.200904,0.290739,-0.0834503,0.44708,0.0991035,-0.0377709,0,0,0,0,0,0,0,0,0,-0.0913556,-0.010984,0.0166104,0.989227,0.00478349,0.00376343,0.0152543,-0.0595649,-0.767234,-0.990581,0.0608271,-0.00214319
109,0.000344161,0.095974,-0.37564,0.701573,0.010584,0.010584,0.010584,0.010584,0.010584,0.010584,0.010584,0.010584,0.010584,0.0106855,0.701329,-0.0678284,0.704682,0.095974,-0.37564,0.701573,-0.0583367,-0.160175,-0.0859756,0.183659,0.0013357,0.0861564,0.010584,-15.4424,-18.3095,-1.97654,8.30987,49.362,-1.33438,1.42118,-31.1485,-0.434586,-1.64999,-0.301294,-1.78052,-6.28424,-0.0632905,-0.342231,-0.0583367,-0.160175,-0.0859756,0.183659,0.0013357,0.0861564,0,0,0,0,0,0,0,0,0,-0.0265787,-0.059355,-0.0262392,0.389169,0.000100231,0.00487203,0.016894,-0.00519775,-0.119977,-0.403372,0.00219817,0.0182629
110,0.000344161,-0.201751,0.106041,0.203476,0.0306657,0.0306657,0.0306657,0.0306657,0.0306657,0.0306657,0.0306657,0.0306657,0.0306657,0.0627469,-0.969334,0.0581093,0.9731,-0.201751,0.106041,0.203476,-0.0116227,0.01825,-0.0745926,0.0352726,0.00146389,0.0319247,0.0306657,12.2395,3.77593,0.375348,0.275321,11.8336,0.870839,-2.48833,-15.4078,0.0150194,0.751459,0.0295677,1.99153,-1.13282,0.0279504,0.293323,-0.0116227,0.01825,-0.0745926,0.0352726,0.00146389,0.0319247,0,0,0,0,0,0,0,0,0,0.0244638,0.046903,-0.00146626,0.429052,0.00378618,0.00540224,-0.0139847,0.0767255,-0.129935,-0.42109,-0.0764151,-0.0139368
111,0.000344161,-0.0236807,0.0224852,0.0440013,0.091113,0.091113,0.091113,0.091113,0.091113,0.091113,0.091113,0.091113,0.091113,-0.459037,0.868814,0.00888696,0.982666,-0.0236807,0.0224852,0.0440013,0.0181086,-0.016341,0.0242701,0.0126158,-0.00349164,-0.0103459,0.091113,0.930831,2.02063,-0.0437993,0.136177,-0.307989,0.869739,0.599944,-1.68896,-0.0128992,0.0662705,0.0698659,-0.734909,-0.224933,0.00280008,0.0909643,0.0181086,-0.016341,0.0242701,0.0126158,-0.00349164,-0.0103459,0,0,0,0,0,0,0,0,0,0.000253782,0.0036588,-0.000180647,0.0997839,-0.000512833,-0.000420756,-0.00108731,-0.0198474,-0.0109596,-0.0908438,0.0205112,-0.00112363
112,0.000344161,-0.0255551,-0.000107169,0.171882,0.0797397,0.0797397,0.0797397,0.0797397,0.0797397,0.0797397,0.0797397,0.0797397,0.0797397,0.425889,0.875496,0.0202603,0.973799,-0.0255551,-0.000107169,0.171882,0.0463302,-0.0209508,-0.00304413,0.00345856,-0.00896358,0.0377939,0.0797397,3.44276,-4.83162,-0.327852,0.367448,1.815,-0.691822,-2.07097,3.04217,0.0759586,-0.875316,-0.135848,0.787729,0.507975,0.0378108,1.11136,0.0463302,-0.0209508,-0.00304413,0.00345856,-0.00896358,0.0377939,0,0,0,0,0,0,0,0,0,0.0137754,0.0132407,-0.0014335,0.718187,-0.00224848,-0.00205452,-0.00380766,-0.0885119,-0.348385,-0.725136,0.0870637,-0.00382672
113,0.000344161,-0.0939131,0.00703359,-0.0526958,0.0268898,0.0268898,0.0268898,0.0268898,0.0268898,0.0268898,0.0268898,0.0268898,0.0268898,-0.632636,0.839256,-0.0731102,1.05353,-0.0939131,0.00703359,-0.0526958,0.0399193,-0.0408109,-0.0403411,-0.0913022,-0.0140867,-0.0570779,0.0268898,-5.925,-12.7499,0.526448,-1.42239,2.53938,0.202383,4.30158,10.3045,-0.429816,3.34044,-0.0401685,-0.37368,-1.92509,-0.151066,-3.8752,0.0399193,-0.0408109,-0.0403411,-0.0913022,-0.0140867,-0.0570779,0,0,0,0,0,0,0,0,0,-0.0032877,-0.0217935,0.00138379,0.0339624,0.000371149,0.00347258,0.00502634,-0.00899702,-0.00134156,-0.032342,0.00845447,0.00659121
114,0.000344161,-0.0522354,-0.000658751,0.123014,0.0732918,0.0732918,0.0732918,0.0732918,0.0732918,0.0732918,0.0732918,0.0732918,0.0732918,-0.216152,-0.754097,0.0267082,0.784918,-0.0522354,-0.000658751,0.123014,0.049127,-0.0240335,0.0147228,0.0256383,0.00037086,0.0267106,0.0732918,4.34632,6.70873,-0.145179,0.105444,-4.70847,0.336616,-2.76267,-1.94802,-0.122353,0.481217,0.0366378,2.30231,-0.586002,0.0111014,0.337342,0.049127,-0.0240335,0.0147228,0.0256383,0.00037086,0.0267106,0,0,0,0,0,0,0,0,0,0.00541021,0.0169735,-0.00193891,0.224038,-0.000338072,0.000246792,-0.00548728,0.00703595,-0.0491318,-0.220525,-0.00666586,-0.00481465
115,0.000344161,0.0382042,-0.0548029,1.41066,0.0354093,0.0354093,0.0354093,0.0354093,0.0354093,0.0354093,0.0354093,0.0354093,0.0354093,0.964591,-0.511474,-0.0066122,1.09183,0.0382042,-0.0548029,1.41066,0.0783976,-0.0673892,-0.0973587,-0.0418371,-0.0661669,0.125652,0.0354093,0.0101864,-0.217334,-0.0341749,2.63415,-0.0858892,-1.2406,5.37897,0.265019,0.389861,1.2275,-1.76895,-2.21362,-3.80684,0.0995256,-4.57601,0.0783976,-0.0673892,-0.0973587,-0.0418371,-0.0661669,0.125652,0,0,0,0,0,0,0,0,0,-0.00691693,-0.000320678,-0.00151991,0.955137,-0.00178474,0.000504265,0.000976519,0.0957375,-0.852547,-0.968517,-0.114089,0.00036229
116,0.000344161,-0.0525677,-0.000299633,0.0701322,0.0886789,0.0886789,0.0886789,0.0886789,0.0886789,0.0886789,0.0886789,0.0886789,0.0886789,-0.366735,0.737848,0.0113211,0.82404,-0.0525677,-0.000299633,0.0701322,0.00275761,-0.0141323,0.0444708,0.00971833,0.00474399,0.00692004,0.0886789,1.39265,2.54239,0.0790617,0.282291,-1.29684,0.493721,-0.146101,-1.19298,-0.0528647,0.0908343,0.189018,-0.0543763,-0.372826,0.00522141,0.130346,0.00275761,-0.0141323,0.0444708,0.00971833,0.00474399,0.00692004,0,0,0,0,0,0,0,0,0,0.000955626,0.00540272,0.000572045,0.140108,-0.000370676,7.7249e-05,-0.00179004,-0.00227414,-0.0231358,-0.134726,0.00421177,-0.0015136
117,0.000344161,0.00794888,0.153637,0.491807,0.0379158,0.0379158,0.0379158,0.0379158,0.0379158,0.0379158,0.0379158,0.0379158,0.0379158,0.84979,-0.962084,0.0415583,1.28432,0.00794888,0.153637,0.491807,0.0559683,-0.059772,-0.118568,0.0380914,0.0250607,0.0698941,0.0379158,1.96853,-16.5715,0.126977,-0.439802,3.02604,-1.10667,-1.07467,13.5375,-0.00749327,-0.282909,-0.111232,-0.648144,0.569075,0.129263,1.231,0.0559683,-0.059772,-0.118568,0.0380914,0.0250607,0.0698941,0,0,0,0,0,0,0,0,0,0.0368419,0.00752143,0.000964885,0.901463,0.00404169,-0.000292837,-0.00244807,0.124641,-0.691003,-0.913716,-0.125502,-0.00160528
118,0.000344161,-0.242916,-0.16541,2.23009,0.0176788,0.0176788,0.0176788,0.0176788,0.0176788,0.0176788,0.0176788,0.0176788,0.0176788,0.90957,-0.170764,0.0823212,0.929115,-0.242916,-0.16541,2.23009,-0.064771,-0.0824845,0.0151138,0.346949,0.0374203,0.0145218,0.0176788,0.866266,0.0237713,1.35268,-0.986228,-6.35872,-0.120473,-1.77219,6.57786,-4.6404,-8.77534,-0.202601,1.29924,9.92698,0.208639,-1.75714,-0.064771,-0.0824845,0.0151138,0.346949,0.0374203,0.0145218,0,0,0,0,0,0,0,0,0,0.0823374,0.00777917,0.0103515,1.01328,0.00248147,0.00235048,-0.0176956,0.0446731,-0.826643,-1.01433,-0.0463249,0.00488749
119,0.000344161,-0.0178146,0.0351558,0.219221,0.0486355,0.0486355,0.0486355,0.0486355,0.0486355,0.0486355,0.0486355,0.0486355,0.0486355,0.279576,-0.806207,0.0513645,0.854851,-0.0178146,0.0351558,0.219221,0.0790666,-0.0794895,-0.0437241,0.00351155,-0.00724411,0.0540962,0.0486355,10.6734,-9.3326,1.21668,0.979037,4.63514,-0.336914,-1.64866,4.71527,0.544791,3.64297,0.322731,0.879376,-4.65716,0.061116,0.550061,0.0790666,-0.0794895,-0.0437241,0.00351155,-0.00724411,0.0540962,0,0,0,0,0,0,0,0,0,0.0311134,0.04059,0.00642081,0.616782,0.00236998,0.00495111,-0.0104308,0.0617011,-0.253631,-0.620588,-0.0585462,-0.0125962
120,0.000344161,-0.0362397,0.000794411,-0.0142968,0.0642134,0.0642134,0.0642134,0.0642134,0.0642134,0.0642134,0.0642134,0.0642134,0.0642134,-0.612852,-0.375283,-0.0357866,0.719517,-0.0362397,0.000794411,-0.0142968,-0.00732097,-0.0572346,0.00512719,-0.0172941,-0.0117604,0.00442648,0.0642134,-1.27385,0.113651,0.646996,2.92203,-0.547528,-0.177622,-2.34663,0.470117,-0.411092,-0.419582,-0.269706,1.33535,-2.50324,-0.060431,1.02558,-0.00732097,-0.0572346,0.00512719,-0.0172941,-0.0117604,0.00442648,0,0,0,0,0,0,0,0,0,-0.00136054,-0.00436867,0.00363054,0.0225765,-6.95325e-06,0.00226708,-0.000104744,-0.00991079,-0.00149123,-0.0243015,0.00709612,0.00175717
121,0.000344161,0.367766,-0.0870762,0.364202,0.00931726,0.00931726,0.00931726,0.00931726,0.00931726,0.00931726,0.00931726,0.00931726,0.00931726,-0.535902,0.49701,-0.0906827,0.736501,0.367766,-0.0870762,0.364202,0.0552577,0.0326737,0.0259404,-0.121733,0.0931643,0.078604,0.00931726,-5.7672,-0.745256,-2.07961,-7.91387,4.80008,-0.000341743,-0.70015,-4.42259,-0.482045,4.31521,0.0398778,0.382148,3.68574,-0.00850244,-0.0462003,0.0552577,0.0326737,0.0259404,-0.121733,0.0931643,0.078604,0,0,0,0,0,0,0,0,0,-0.00533125,-0.0213532,-0.0124362,0.0538187,-0.00162199,-0.00803313,0.0041876,0.0139586,-0.00599969,-0.0535627,-0.0126281,0.00755699
122,0.000344161,-0.0727119,0.0541279,-0.0118608,0.0467438,0.0467438,0.0467438,0.0467438,0.0467438,0.0467438,0.0467438,0.0467438,0.0467438,-0.411717,0.953256,0.0421276,1.03922,-0.0727119,0.0541279,-0.0118608,-0.0133005,0.00151876,-0.017765,0.0144512,-0.00657439,0.011445,0.0467438,5.10789,9.4971,-0.183852,-0.0739362,2.68176,1.18476,0.538377,-12.1061,-0.00783773,0.378704,0.0269919,-0.542408,-0.358896,0.0085178,0.0158917,-0.0133005,0.00151876,-0.017765,0.0144512,-0.00657439,0.011445,0,0,0,0,0,0,0,0,0,0.00442355,0.0195639,0.000874841,0.118746,-0.00175523,-0.00269817,-0.00587597,-0.0338424,-0.0134654,-0.107076,0.0340466,-0.00580922
123,0.000344161,0.0215483,-0.0180937,-0.0308594,0.0361214,0.0361214,0.0361214,0.0361214,0.0361214,0.0361214,0.0361214,0.0361214,0.0361214,-0.478256,-0.963879,0.035466,1.07659,0.0215483,-0.0180937,-0.0308594,0.0145414,-0.00232787,-0.0356755,0.00246084,0.000853539,0.034813,0.0361214,3.72413,7.88376,0.113254,0.0138431,3.31853,1.36894,0.238988,-11.2238,-0.000944616,-0.10575,-0.00226802,-0.201335,0.110001,0.00353255,-0.00679368,0.0145414,-0.00232787,-0.0356755,0.00246084,0.000853539,0.034813,0,0,0,0,0,0,0,0,0,0.00257573,0.0143335,-0.00108733,0.0891707,0.000681167,0.00219659,-0.00435227,0.031253,-0.00667023,-0.075838,-0.0312671,-0.00416812
124,0.000344161,0.609517,-0.70403,2.70799,0.0164275,0.0164275,0.0164275,0.0164275,0.0164275,0.0164275,0.0164275,0.0164275,0.0164275,0.844812,0.279003,-0.0835725,0.893608,0.609517,-0.70403,2.70799,-0.0626468,0.122666,-0.0380936,0.327233,0.0595241,-0.014228,0.0164275,-1.51111,-4.20975,1.5744,8.11025,7.64256,-0.0716336,-1.98801,-4.04232,2.62421,-8.04534,0.0080532,1.50815,0.639126,-0.0938081,-2.22813,-0.0626468,0.122666,-0.0380936,0.327233,0.0595241,-0.014228,0,0,0,0,0,0,0,0,0,-0.0836183,-0.00933377,0.0155976,0.988312,0.00423985,0.00137306,0.0132922,-0.0578033,-0.756536,-0.98941,0.058479,-0.00200516
125,0.000344161,0.0870018,-0.194881,2.43586,0.00661951,0.00661951,0.00661951,0.00661951,0.00661951,0.00661951,0.00661951,0.00661951,0.00661951,0.45296,0.897422,-0.0933805,1.00958,0.0870018,-0.194881,2.43586,-0.54561,0.0784312,0.00891113,0.0267768,0.0197926,0.0979671,0.00661951,-15.3132,24.3686,1.33056,-1.50381,-9.51914,-0.096709,-0.277626,-14.9365,-0.134336,3.05873,-0.00726072,0.116022,-1.36003,-0.0358107,-2.27426,-0.54561,0.0784312,0.00891113,0.0267768,0.0197926,0.0979671,0,0,0,0,0,0,0,0,0,-0.0694918,-0.0609429,0.00655145,0.739245,0.00837829,0.0075385,0.0178132,-0.094003,-0.367079,-0.740123,0.0941283,0.0186618
126,0.000344161,-0.287512,-0.174691,3.71036,0.0116185,0.0116185,0.0116185,0.0116185,0.0116185,0.0116185,0.0116185,0.0116185,0.0116185,0.988382,-0.464568,-0.00295788,1.09212,-0.287512,-0.174691,3.71036,0.0756807,-0.072909,-0.207336,0.159103,-0.567367,0.19682,0.0116185,-0.00600789,-0.397886,0.0271239,0.212249,0.0183157,-1.03445,8.5862,0.667082,0.110668,0.50306,-2.08222,-2.30861,-0.540618,0.0213761,-9.98794,0.0756807,-0.072909,-0.207336,0.159103,-0.567367,0.19682,0,0,0,0,0,0,0,0,0,-0.00347728,-0.000295067,-0.00103451,0.963917,-0.00139584,0.000576655,0.000705423,0.0869679,-0.881019,-0.976335,-0.113464,0.00044755
127,0.000344161,-0.0201446,0.0141672,0.0238234,0.0798343,0.0798343,0.0798343,0.0798343,0.0798343,0.0798343,0.0798343,0.0798343,0.0798343,-0.564951,-0.502981,-0.0201657,0.756681,-0.0201446,0.0141672,0.0238234,0.0157173,-0.0303158,0.00134134,0.000746459,-0.0119221,0.00699776,0.0798343,-1.25908,-0.723045,0.391834,1.8052,1.28362,-0.143217,-1.31637,-0.540427,-0.156181,-0.773733,-0.302246,0.729606,-1.04564,-0.0158006,0.562937,0.0157173,-0.0303158,0.00134134,0.000746459,-0.0119221,0.00699776,0,0,0,0,0,0,0,0,0,-0.00146834,-0.00459265,0.00235608,0.0452019,-0.000146965,0.0012591,0.00084698,-0.0114353,-0.0041826,-0.0466207,0.00829362,0.00158014
128,0.000344161,0.113724,0.00263631,0.245678,0.0598057,0.0598057,0.0598057,0.0598057,0.0598057,0.0598057,0.0598057,0.0598057,0.0598057,0.369134,0.934021,-0.0401943,1.00512,0.113724,0.00263631,0.245678,-0.0386975,-0.024295,-0.000747681,0.00986266,0.00570107,0.0144935,0.0598057,-7.53409,7.92201,0.434906,-0.41814,-5.51285,-0.293612,-2.75065,-2.52288,-0.0503342,1.48786,-0.0947352,1.70274,-1.07236,-0.0305952,0.802234,-0.0386975,-0.024295,-0.000747681,0.00986266,0.00570107,0.0144935,0,0,0,0,0,0,0,0,0,-0.0279081,-0.0290608,0.00111307,0.675755,0.0033983,0.00299304,0.00860075,-0.0952022,-0.30338,-0.678698,0.0943118,0.0087226
129,0.000344161,-0.0802486,-0.217295,0.854437,0.00420866,0.00420866,0.00420866,0.00420866,0.00420866,0.00420866,0.00420866,0.00420866,0.00420866,-0.325904,-0.540921,0.00399186,0.631526,-0.0802486,-0.217295,0.854437,-0.00488345,-0.113764,-0.681364,0.0601528,0.53211,-0.0157307,0.00420866,0.161065,-15.6458,-0.128516,13.0808,16.1168,-2.05106,51.7633,-0.390746,0.109902,-13.2714,1.72166,-51.9625,0.407947,0.0058378,-0.655203,-0.00488345,-0.113764,-0.681364,0.0601528,0.53211,-0.0157307,0,0,0,0,0,0,0,0,0,-0.000106514,0.000415895,-0.00235302,0.109067,-0.00052681,-6.97806e-05,0.000485262,-0.0171704,-0.0254914,-0.136391,0.0397082,-0.000414475
130,0.000344161,-1.25587,0.458515,2.50201,0.00407448,0.00407448,0.00407448,0.00407448,0.00407448,0.00407448,0.00407448,0.00407448,0.00407448,0.030569,0.697713,0.0618336,0.701114,-1.25587,0.458515,2.50201,0.903605,0.354004,-0.27356,-0.456205,-0.0114552,-0.149532,0.00407448,13.5655,-30.6982,1.66563,-16.8327,5.21074,-1.49608,8.15989,26.7433,0.255477,12.3982,-0.251614,-10.2524,3.97592,0.0450907,-0.409542,0.903605,0.354004,-0.27356,-0.456205,-0.0114552,-0.149532,0,0,0,0,0,0,0,0,0,0.0239438,0.0560025,0.024778,0.403342,-0.000828603,-0.00458168,-0.0173467,-0.00616687,-0.128066,-0.421038,0.00353618,-0.0168652
131,0.000344161,0.384516,0.130934,0.091341,0.0220365,0.0220365,0.0220365,0.0220365,0.0220365,0.0220365,0.0220365,0.0220365,0.0220365,-0.452798,0.432997,-0.0749271,0.630972,0.384516,0.130934,0.091341,-0.0244527,-0.0846822,-0.0410943,-0.0234201,-0.0806649,0.00743449,0.0220365,-2.35402,28.2445,-2.06677,3.44817,-10.363,-0.524116,-7.78497,-18.266,-1.73874,16.8475,-0.63514,7.50672,-20.4267,0.00067516,0.18691,-0.0244527,-0.0846822,-0.0410943,-0.0234201,-0.0806649,0.00743449,0,0,0,0,0,0,0,0,0,-0.00462479,-0.00712405,-0.022157,0.0577037,-0.0018607,0.000642548,-0.00404252,0.0244309,-0.00946812,-0.0633558,-0.0315889,0.00480885
132,0.000344161,0.195528,-0.0444089,0.205961,0.019851,0.019851,0.019851,0.019851,0.019851,0.019851,0.019851,0.019851,0.019851,-0.129737,-0.879293,-0.080149,0.892419,0.195528,-0.0444089,0.205961,0.224731,0.103326,-0.0310574,-0.0299363,-0.0182853,-0.0348101,0.019851,-15.0312,-16.9779,-0.865485,-2.43091,1.32478,0.327299,-0.53685,15.4575,0.159067,2.0292,0.00191533,0.22496,0.446117,-0.0234463,0.105929,0.224731,0.103326,-0.0310574,-0.0299363,-0.0182853,-0.0348101,0,0,0,0,0,0,0,0,0,-0.0233575,-0.0570297,-0.00146695,0.280145,-0.00363489,-0.00615464,0.0176483,0.0379006,-0.068453,-0.277182,-0.0380643,0.0167113
133,0.000344161,-0.0523987,-0.00342619,0.426107,0.0564782,0.0564782,0.0564782,0.0564782,0.0564782,0.0564782,0.0564782,0.0564782,0.0564782,0.731327,-0.690821,0.0435218,1.00696,-0.0523987,-0.00342619,0.426107,0.0814127,-0.0551837,-0.0147247,0.0429937,-0.00524044,0.0738857,0.0564782,3.51826,-12.4137,1.04699,-1.35418,2.65559,-0.942785,-1.25956,9.81052,-0.0422163,-0.604942,-0.211333,-0.598579,1.96255,0.102257,1.43203,0.0814127,-0.0551837,-0.0147247,0.0429937,-0.00524044,0.0738857,0,0,0,0,0,0,0,0,0,0.0381696,0.0136408,0.00565783,0.890862,0.00306355,0.00426022,-0.00435372,0.09585,-0.614531,-0.900437,-0.0980157,-0.00347689
134,0.000344161,-0.00274658,0.0478039,0.468047,0.0634883,0.0634883,0.0634883,0.0634883,0.0634883,0.0634883,0.0634883,0.0634883,0.0634883,0.786345,0.535641,0.0365117,0.952147,-0.00274658,0.0478039,0.468047,0.0232643,0.00800404,0.0463715,0.0760754,-0.0316048,0.0667239,0.0634883,1.99194,-7.49326,-1.02769,1.27775,0.610077,-0.836669,-3.18099,6.88593,-0.273101,1.07002,0.378763,0.801988,-2.39558,0.113344,1.91096,0.0232643,0.00800404,0.0463715,0.0760754,-0.0316048,0.0667239,0,0,0,0,0,0,0,0,0,0.0329947,0.00777034,-0.00588374,0.930338,-0.00364937,-0.00431314,-0.0032908,-0.0839301,-0.680924,-0.938241,0.0874017,-0.00140533
135,0.000344161,0.0183935,-0.102921,0.0899895,0.0234967,0.0234967,0.0234967,0.0234967,0.0234967,0.0234967,0.0234967,0.0234967,0.0234967,-0.200021,0.784617,-0.0765033,0.813317,0.0183935,-0.102921,0.0899895,0.0844114,-0.0753608,0.0431862,-0.0128601,0.0235268,-0.00526047,0.0234967,-13.0867,-19.4397,0.0333959,1.63288,10.5481,0.218549,-0.805426,8.87315,0.401013,-1.57445,0.00554621,0.605425,0.0444966,-0.0223439,0.110011,0.0844114,-0.0753608,0.0431862,-0.0128601,0.0235268,-0.00526047,0,0,0,0,0,0,0,0,0,-0.0187883,-0.0504249,-0.00290564,0.235587,0.00061517,0.00248599,0.0165274,-0.0123529,-0.0534799,-0.23297,0.0126437,0.0144486
136,0.000344161,-0.00739479,0.0534177,0.796204,0.0358821,0.0358821,0.0358821,0.0358821,0.0358821,0.0358821,0.0358821,0.0358821,0.0358821,0.776361,0.695176,0.0641179,1.04409,-0.00739479,0.0534177,0.796204,0.0607904,0.0886645,0.0146637,0.0321764,-0.0128584,0.0347047,0.0358821,4.3429,-20.1904,-1.49511,2.66244,4.16348,-0.714743,-0.561194,16.0344,-0.13879,1.38409,0.220492,-0.685215,-4.09995,0.135022,0.450205,0.0607904,0.0886645,0.0146637,0.0321764,-0.0128584,0.0347047,0,0,0,0,0,0,0,0,0,0.0571292,0.0168644,-0.00725333,0.907503,-0.00683531,-0.00681117,-0.00568707,-0.0983065,-0.656732,-0.914503,0.100383,-0.00430537
137,0.000344161,0.00767589,-0.052452,0.0275276,0.0684182,0.0684182,0.0684182,0.0684182,0.0684182,0.0684182,0.0684182,0.0684182,0.0684182,-0.518389,0.466493,-0.0315818,0.698097,0.00767589,-0.052452,0.0275276,0.0258875,0.000830039,0.0283108,-0.00604787,0.0185878,-0.00318015,0.0684182,-1.7299,2.17476,-0.805724,-2.54545,0.821059,-0.341976,-4.28205,-3.00349,-0.333103,2.53317,0.0262196,4.01387,0.064733,-0.00851014,0.240651,0.0258875,0.000830039,0.0283108,-0.00604787,0.0185878,-0.00318015,0,0,0,0,0,0,0,0,0,-0.0021751,-0.00614908,-0.0057147,0.0508239,-0.00086532,-0.00233424,0.000675228,0.0164839,-0.00622512,-0.0539605,-0.0160359,0.00231253
138,0.000344161,-0.102576,0.0336996,0.129899,0.031439,0.031439,0.031439,0.031439,0.031439,0.031439,0.031439,0.031439,0.031439,-0.268926,-0.968561,-0.000166633,1.0052,-0.102576,0.0336996,0.129899,0.0858628,-4.3191e-05,-0.0506954,0.0169042,-0.013061,0.0252093,0.031439,-0.0932657,0.0392034,-0.0106527,-0.0201998,-0.254067,1.71388,0.464897,0.317439,-0.00131582,0.00378614,-0.0483275,-0.82266,-0.017286,0.00269393,0.227864,0.0858628,-4.3191e-05,-0.0506954,0.0169042,-0.013061,0.0252093,0,0,0,0,0,0,0,0,0,-0.000676367,-7.86551e-05,0.000338922,0.195917,-0.000509934,-0.000445882,3.63009e-05,0.0463419,-0.0324362,-0.179285,-0.0469558,9.78753e-05
139,0.000344161,-0.0739625,0.0451503,-0.0421513,0.0296348,0.0296348,0.0296348,0.0296348,0.0296348,0.0296348,0.0296348,0.0296348,0.0296348,-0.572723,0.534428,0.0703652,0.786496,-0.0739625,0.0451503,-0.0421513,-0.0221566,-0.0966362,0.0195827,0.0609626,0.0393167,-0.00980854,0.0296348,4.88976,2.87959,1.19134,5.74706,-5.03646,-0.0460095,0.594894,2.23084,0.525628,-1.32656,0.172474,0.128461,-4.46566,0.0109917,-0.681204,-0.0221566,-0.0966362,0.0195827,0.0609626,0.0393167,-0.00980854,0,0,0,0,0,0,0,0,0,0.00273143,0.0180433,0.00626335,0.0476031,0.000325894,0.00468368,-0.00336171,0.00880699,-0.00434171,-0.0478673,-0.00668908,-0.00628875
140,0.000344161,-0.0225646,-0.0881109,0.0381176,0.0689558,0.0689558,0.0689558,0.0689558,0.0689558,0.0689558,0.0689558,0.0689558,0.0689558,0.0379051,0.764008,-0.0282938,0.76547,-0.0225646,-0.0881109,0.0381176,-0.0911229,-0.0496421,0.0579376,0.0161465,0.0165418,0.00896621,0.0689558,-6.29243,-4.76115,0.115898,2.44304,7.29542,-0.407242,-1.31898,-2.51171,-0.210862,0.554683,-0.460626,0.401886,-2.90961,-0.027764,0.878972,-0.0911229,-0.0496421,0.0579376,0.0161465,0.0165418,0.00896621,0,0,0,0,0,0,0,0,0,-0.0124555,-0.0243057,-0.00202452,0.416625,0.000331065,0.00268708,0.00663842,-0.0245199,-0.129957,-0.420118,0.0200791,0.007518
141,0.000344161,-0.0288954,0.0106059,0.0516923,0.0635072,0.0635072,0.0635072,0.0635072,0.0635072,0.0635072,0.0635072,0.0635072,0.0635072,-0.452978,0.854696,-0.0364928,0.968001,-0.0288954,0.0106059,0.0516923,-0.00785547,-0.025146,0.00111198,-0.014562,-0.00713646,0.00739026,0.0635072,-4.09788,-7.22252,0.1654,-0.37196,1.6562,0.722844,0.571514,5.59521,0.0197795,-0.180626,0.078006,-0.718833,0.541981,-0.00154597,0.0956267,-0.00785547,-0.025146,0.00111198,-0.014562,-0.00713646,0.00739026,0,0,0,0,0,0,0,0,0,-0.0043587,-0.015804,0.000222795,0.101408,0.000330975,0.00117974,0.00475071,-0.0183968,-0.0118816,-0.0941689,0.0191055,0.00475384
142,0.000344161,-0.0469828,0.0116302,0.152967,0.0654475,0.0654475,0.0654475,0.0654475,0.0654475,0.0654475,0.0654475,0.0654475,0.0654475,-0.22741,0.933992,-0.0345525,0.9619,-0.0469828,0.0116302,0.152967,-0.0485325,-0.0466844,-0.0249767,0.00594383,0.00258493,-0.00553966,0.0654475,-5.62225,-7.7774,0.219276,0.446317,-1.48828,1.20784,0.00871032,9.31266,0.0279269,-0.786939,0.0508379,-0.431745,0.328992,-0.00571089,0.270068,-0.0485325,-0.0466844,-0.0249767,0.00594383,0.00258493,-0.00553966,0,0,0,0,0,0,0,0,0,-0.0083072,-0.0218368,-0.000515402,0.220392,0.00109785,0.00224132,0.00668646,-0.0418714,-0.0427856,-0.208564,0.0424056,0.00646085
143,0.000344161,0.136432,0.0505095,1.24014,0.0361904,0.0361904,0.0361904,0.0361904,0.0361904,0.0361904,0.0361904,0.0361904,0.0361904,0.85523,0.0934877,0.0314212,0.860898,0.136432,0.0505095,1.24014,0.00934085,-0.00574161,0.0251541,0.0679065,0.0230079,0.0827284,0.0361904,0.0329712,1.52391,-0.0914183,-7.18327,-1.81861,-0.0212218,-2.17258,0.158266,-1.74481,4.74714,-0.315729,-1.55254,2.38562,0.151436,2.48497,0.00934085,-0.00574161,0.0251541,0.0679065,0.0230079,0.0827284,0,0,0,0,0,0,0,0,0,0.0308141,0.00182744,-0.00305289,1.0157,-0.00156164,0.00208129,-0.00676866,-0.0230185,-0.774542,-1.01566,0.0200913,0.00278671
144,0.000344161,0.102615,0.0159731,0.358347,0.0443568,0.0443568,0.0443568,0.0443568,0.0443568,0.0443568,0.0443568,0.0443568,0.0443568,0.26211,-0.73162,-0.0522081,0.778907,0.102615,0.0159731,0.358347,0.128469,0.0315119,0.0298271,0.0213268,-0.0217543,0.0222516,0.0443568,-11.7838,14.2844,-1.72758,-4.78875,-12.0315,-0.221481,1.33247,-2.35557,-0.696088,0.632315,0.303532,-2.40397,4.14046,-0.0522502,0.713151,0.128469,0.0315119,0.0298271,0.0213268,-0.0217543,0.0222516,0,0,0,0,0,0,0,0,0,-0.032536,-0.044015,-0.00957822,0.613579,-0.00317132,-0.0073825,0.0108878,0.0443626,-0.246589,-0.615496,-0.0415448,0.0141117
145,0.000344161,0.798037,0.587324,0.468671,0.0299679,0.0299679,0.0299679,0.0299679,0.0299679,0.0299679,0.0299679,0.0299679,0.0299679,0.960308,-0.750115,-0.0700321,1.22056,0.798037,0.587324,0.468671,0.0417797,-0.0790908,0.102684,-0.0406577,-0.0606461,0.13714,0.0299679,-0.679816,27.8265,-0.499074,11.6884,-1.87844,-0.725967,-6.00534,-26.7461,0.767314,4.42109,-0.402641,-1.38563,-16.6969,-0.0350548,6.9223,0.0417797,-0.0790908,0.102684,-0.0406577,-0.0606461,0.13714,0,0,0,0,0,0,0,0,0,-0.0654229,-0.00341023,-0.00662974,0.931828,-0.00936275,0.000848095,0.00341324,0.120361,-0.819637,-0.938061,-0.124994,0.00029038
146,0.000344161,-5.98144,2.68178,62.6548,0.000127021,0.000127021,0.000127021,0.000127021,0.000127021,0.000127021,0.000127021,0.000127021,0.000127021,0.729465,0.481172,0.099873,0.879557,-5.98144,2.68178,62.6548,2.03586,-0.0890031,-0.204254,-1.17071,0.0660276,0.180909,0.000127021,3.62268,-6.12033,-3.00079,7.98713,-3.516,-0.0079084,-0.0204068,15.6178,1.06457,-7.65417,0.00456026,0.0701557,-3.01474,0.0327591,-62.7045,2.03586,-0.0890031,-0.204254,-1.17071,0.0660276,0.180909,0,0,0,0,0,0,0,0,0,0.0917893,0.0216395,-0.0214449,0.927532,-0.00787075,-0.009453,-0.00718385,-0.0707891,-0.632348,-0.929654,0.071495,-0.00558482
147,0.000344161,-1.9604,3.27404,30.0309,0.000293553,0.000293553,0.000293553,0.000293553,0.000293553,0.000293553,0.000293553,0.000293553,0.000293553,0.470481,0.796761,0.0997064,0.930656,-1.9604,3.27404,30.0309,2.46357,0.0810499,-0.0252991,-0.0355673,0.0211687,0.129927,0.000293553,13.9004,-26.0762,-2.38723,1.28393,10.7207,-0.00609805,-0.0120164,17.3159,0.570445,-5.07902,0.00281677,-0.0122713,0.521047,0.0257611,-30.0066,2.46357,0.0810499,-0.0252991,-0.0355673,0.0211687,0.129927,0,0,0,0,0,0,0,0,0,0.0747053,0.0621414,-0.0120847,0.761548,-0.00827111,-0.0109771,-0.0170039,-0.0773608,-0.38893,-0.761862,0.0776007,-0.0188998
148,0.000344161,0.0312524,-0.230298,0.341572,0.0418912,0.0418912,0.0418912,0.0418912,0.0418912,0.0418912,0.0418912,0.0418912,0.0418912,0.61658,-0.555654,-0.0384023,0.830901,0.0312524,-0.230298,0.341572,0.115895,0.0367019,-0.000671387,-0.00224316,-0.0402384,0.0468737,0.0418912,-3.16316,-1.27903,-1.70174,6.59609,-3.16824,0.331946,-15.4161,4.41601,-0.903525,-12.4203,0.555296,13.5725,6.05447,-0.054943,1.50201,0.115895,0.0367019,-0.000671387,-0.00224316,-0.0402384,0.0468737,0,0,0,0,0,0,0,0,0,-0.0343444,-0.0106658,-0.0134978,0.879687,-0.00380868,-0.0031526,4.16638e-05,0.0711845,-0.523796,-0.876374,-0.0660339,0.00453016
149,0.000344161,-0.0816278,0.0525621,0.313214,0.0698543,0.0698543,0.0698543,0.0698543,0.0698543,0.0698543,0.0698543,0.0698543,0.0698543,0.858544,-0.87564,0.0301457,1.22668,-0.0816278,0.0525621,0.313214,0.0764201,-0.0272885,-0.00680542,0.0323641,0.0310707,0.0722515,0.0698543,1.32076,-12.1771,0.244429,-0.884944,1.75199,-1.2927,-0.946795,10.5067,-0.0329147,-0.364083,-0.215271,-1.31962,1.19646,0.112281,1.9532,0.0764201,-0.0272885,-0.00680542,0.0323641,0.0310707,0.0722515,0,0,0,0,0,0,0,0,0,0.0267109,0.00516149,0.00164429,0.905088,0.00246244,0.000527118,-0.00182717,0.119778,-0.709681,-0.918083,-0.12162,-0.000901758
150,0.000344161,-0.976273,-0.371145,3.31655,0.00330675,0.00330675,0.00330675,0.00330675,0.00330675,0.00330675,0.00330675,0.00330675,0.00330675,0.515841,0.785763,-0.0966933,0.944915,-0.976273,-0.371145,3.31655,-0.815718,0.019533,-0.0224533,0.0347478,0.0948954,0.112535,0.00330675,-13.7773,28.0366,2.21655,-2.94371,-8.85653,-0.0568755,-0.0720835,-18.2038,-0.381288,3.24079,0.000983611,-0.0402625,0.0740676,-0.0302246,-3.20421,-0.815718,0.019533,-0.0224533,0.0347478,0.0948954,0.112535,0,0,0,0,0,0,0,0,0,-0.0767759,-0.055822,0.0122957,0.79014,0.00736176,0.0100651,0.0154103,-0.0802022,-0.42502,-0.790933,0.081161,0.0175545
151,0.000344161,-0.182303,-0.327883,1.31377,0.0190978,0.0190978,0.0190978,0.0190978,0.0190978,0.0190978,0.0190978,0.0190978,0.0190978,0.819625,-0.186006,0.0468124,0.841768,-0.182303,-0.327883,1.31377,0.00364658,-0.141931,0.0457001,-0.0414256,-0.0904744,0.0891141,0.0190978,0.0986223,8.38619,-0.0124985,18.258,-6.74908,0.137259,-7.83824,-1.45481,-1.77191,-7.95879,1.10426,4.36013,-9.97135,0.163819,2.16434,0.00364658,-0.141931,0.0457001,-0.0414256,-0.0904744,0.0891141,0,0,0,0,0,0,0,0,0,0.0460189,0.00219381,0.00649773,1.00107,0.00125824,-0.00804202,-0.00738422,0.0482192,-0.735567,-0.99924,-0.0380814,0.00294713
152,0.000344161,-0.175508,0.0650272,0.591371,0.0440144,0.0440144,0.0440144,0.0440144,0.0440144,0.0440144,0.0440144,0.0440144,0.0440144,0.882425,-0.625856,-0.0559856,1.08328,-0.175508,0.0650272,0.591371,0.116686,-0.0701678,-0.0222626,-0.00894098,0.03864,0.0651254,0.0440144,-1.85431,19.3042,-1.18665,5.09507,-2.48081,-0.824411,-0.874302,-16.6479,0.655331,3.41433,-0.453711,-0.977186,-8.57443,-0.0892877,1.26012,0.116686,-0.0701678,-0.0222626,-0.00894098,0.03864,0.0651254,0,0,0,0,0,0,0,0,0,-0.0527912,-0.00740112,-0.00768882,0.935592,-0.00706016,-0.00487939,0.00451894,0.106844,-0.761062,-0.944059,-0.110995,0.00116618
153,0.000344161,-0.0338883,0.0142213,0.0360764,0.0677231,0.0677231,0.0677231,0.0677231,0.0677231,0.0677231,0.0677231,0.0677231,0.0677231,-0.362376,0.755568,-0.0322769,0.838595,-0.0338883,0.0142213,0.0360764,0.00135481,-0.00949412,0.0388975,0.0099237,0.0173037,0.000529289,0.0677231,-4.14073,-7.20791,-0.155123,-0.609855,3.72607,0.508577,0.0104177,3.51572,0.137186,-0.533223,0.167011,-0.229647,1.12886,-0.001851,0.183153,0.00135481,-0.00949412,0.0388975,0.0099237,0.0173037,0.000529289,0,0,0,0,0,0,0,0,0,-0.00524818,-0.0160889,-0.00146604,0.142665,-0.000179956,-0.000180125,0.00534353,-0.00512952,-0.0236955,-0.13719,0.00697267,0.00460137
154,0.000344161,-0.0252604,0.0131767,0.0448887,0.0646973,0.0646973,0.0646973,0.0646973,0.0646973,0.0646973,0.0646973,0.0646973,0.0646973,-0.498252,0.862572,-0.0353027,0.99676,-0.0252604,0.0131767,0.0448887,-0.0138972,-0.0175022,-0.0117011,-0.0213978,-0.0278939,0.00399172,0.0646973,-3.65951,-6.70972,0.186919,-0.368028,1.20919,0.732136,0.550817,5.52579,-0.0151606,0.193137,0.0436289,-0.628269,0.161714,-0.00219315,0.0325634,-0.0138972,-0.0175022,-0.0117011,-0.0213978,-0.0278939,0.00399172,0,0,0,0,0,0,0,0,0,-0.00357089,-0.0140884,0.00034493,0.082734,0.000287121,0.00134924,0.00409586,-0.0176841,-0.00789467,-0.0755296,0.0178415,0.00428765
155,0.000344161,-1.56269,-0.50679,6.85846,0.00553635,0.00553635,0.00553635,0.00553635,0.00553635,0.00553635,0.00553635,0.00553635,0.00553635,0.975835,-0.383857,0.0944637,1.05286,-1.56269,-0.50679,6.85846,-0.300423,0.264179,-0.175735,-0.125475,-0.0862246,0.0891181,0.00553635,1.14329,-22.8125,0.829345,-30.415,0.736139,-0.103894,-1.02314,23.6391,-3.14651,-8.34928,-0.182363,-0.0949051,39.2711,0.160524,-5.74042,-0.300423,0.264179,-0.175735,-0.125475,-0.0862246,0.0891181,0,0,0,0,0,0,0,0,0,0.0920843,0.00672911,0.0161379,0.989633,0.00688208,-0.0052027,-0.0138451,0.0978041,-0.877193,-0.99243,-0.10049,0.00376299
156,0.000344161,0.167114,-0.085102,0.752017,0.0486076,0.0486076,0.0486076,0.0486076,0.0486076,0.0486076,0.0486076,0.0486076,0.0486076,0.90433,0.951392,0.00213322,1.31262,0.167114,-0.085102,0.752017,-0.0285621,-0.042673,-0.0619278,0.0769293,0.00354862,0.0629186,0.0486076,0.170311,-1.84947,-0.00307137,0.0283398,0.145431,-1.49634,-0.528038,1.53693,-0.00792021,0.044273,0.187381,-1.90293,0.0124892,0.0675061,1.67895,-0.0285621,-0.042673,-0.0619278,0.0769293,0.00354862,0.0629186,0,0,0,0,0,0,0,0,0,0.00113844,0.000315073,0.000132572,0.908541,-0.00088446,-0.000590015,-4.8627e-05,-0.120638,-0.745093,-0.924123,0.122547,0.000258451
157,0.000344161,-0.232884,0.593363,5.69322,0.00960096,0.00960096,0.00960096,0.00960096,0.00960096,0.00960096,0.00960096,0.00960096,0.00960096,0.990399,0.0413267,0.0518785,0.992618,-0.232884,0.593363,5.69322,-0.100547,0.0108214,-0.0627213,0.503847,-0.016946,0.218452,0.00960096,-0.0153253,0.580223,-0.0228065,2.46348,-0.595728,-0.861531,-8.26763,0.248389,-3.55273,1.05554,0.370839,9.03233,-4.11238,-0.525721,-6.45791,-0.100547,0.0108214,-0.0627213,0.503847,-0.016946,0.218452,0,0,0,0,0,0,0,0,0,0.0522891,0.00342682,-0.00249993,1.03105,-0.00128849,0.00238008,-0.0112382,-0.00917559,-0.914146,-1.0403,0.0127145,0.00246983
158,0.000344161,-0.0170612,-0.287899,3.25863,0.00977382,0.00977382,0.00977382,0.00977382,0.00977382,0.00977382,0.00977382,0.00977382,0.00977382,0.895793,-0.864532,-0.0902262,1.2482,-0.0170612,-0.287899,3.25863,0.217548,-0.2111,-0.024353,-0.147958,0.0540514,0.000158072,0.00977382,-3.13321,26.3524,-0.599858,3.1039,-4.07314,-0.192551,0.101452,-22.2622,0.235937,1.86486,-0.0433803,-0.226929,-4.68086,-0.0661512,-3.13315,0.217548,-0.2111,-0.024353,-0.147958,0.0540514,0.000158072,0,0,0,0,0,0,0,0,0,-0.0830149,-0.0112395,-0.00490766,0.920575,-0.0120865,-0.00320192,0.00377875,0.122996,-0.745496,-0.922744,-0.122889,0.00300889
159,0.000344161,0.00844383,0.020755,0.0610623,0.093575,0.093575,0.093575,0.093575,0.093575,0.093575,0.093575,0.093575,0.093575,0.2922,-0.889509,-0.00642498,0.936295,0.00844383,0.020755,0.0610623,0.0629459,-0.00712365,-0.0239563,0.0225712,-0.020752,0.0633571,0.093575,-1.31912,0.981142,-0.116618,0.00162622,-0.67044,-0.311824,-3.32426,-0.319146,-0.0247079,-0.431685,0.286288,2.19542,0.409304,0.00208286,1.06777,0.0629459,-0.00712365,-0.0239563,0.0225712,-0.020752,0.0633571,0,0,0,0,0,0,0,0,0,-0.00455064,-0.00490448,3.82082e-05,0.618263,-0.00136198,-0.00127563,0.00136571,0.0813691,-0.255465,-0.621621,-0.0787137,0.00170359
160,0.000344161,0.208158,-0.0625117,0.301529,0.00835064,0.00835064,0.00835064,0.00835064,0.00835064,0.00835064,0.00835064,0.00835064,0.00835064,-0.350113,-0.847066,-0.0916494,0.921141,0.208158,-0.0625117,0.301529,0.286408,0.0633924,-0.0311747,-0.126642,-0.0144074,-0.0556908,0.00835064,-12.5243,-22.0267,-0.472032,-0.672179,5.35868,0.144749,-0.0214779,16.4598,0.32999,3.25457,-0.0213921,-0.134877,-2.51988,-0.011386,-0.145174,0.286408,0.0633924,-0.0311747,-0.126642,-0.0144074,-0.0556908,0,0,0,0,0,0,0,0,0,-0.0141497,-0.047226,-0.000786289,0.143042,-0.00243018,-0.0033001,0.0149801,0.0218474,-0.0242433,-0.141907,-0.0222054,0.013628
161,0.000344161,-0.0959702,0.0387591,-0.152743,0.0162726,0.0162726,0.0162726,0.0162726,0.0162726,0.0162726,0.0162726,0.0162726,0.0162726,-0.615315,-0.171822,0.0837274,0.644318,-0.0959702,0.0387591,-0.152743,0.00412533,0.0633398,0.0625505,-0.0641038,-0.0362641,0.0318018,0.0162726,0.621093,-8.49434,-0.701418,1.14752,5.13053,-0.0447437,0.289182,3.45978,1.0058,-0.750083,0.00801459,0.235759,-0.436196,0.00293335,-0.372199,0.00412533,0.0633398,0.0625505,-0.0641038,-0.0362641,0.0318018,0,0,0,0,0,0,0,0,0,-4.34518e-05,0.00127804,-0.00409319,0.00703708,-0.0007877,-0.0022876,0.00286041,-0.00505565,-0.00020846,-0.00685901,0.00477316,-0.00167438
162,0.000344161,-8.52439,-1.80012,23.6324,0.00161292,0.00161292,0.00161292,0.00161292,0.00161292,0.00161292,0.00161292,0.00161292,0.00161292,0.888137,-0.0878634,0.0983871,0.897879,-8.52439,-1.80012,23.6324,0.139585,0.246083,0.024498,0.490598,0.0133328,0.00137925,0.00161292,0.350701,11.0632,0.616813,5.2367,-6.69139,-0.028218,-0.0584858,4.15253,-6.30834,-7.81514,-0.0085981,0.0762867,4.37855,0.114317,-23.6502,0.139585,0.246083,0.024498,0.490598,0.0133328,0.00137925,0,0,0,0,0,0,0,0,0,0.0992626,0.00846499,0.00732448,1.01992,0.00129391,0.00130448,-0.0230751,0.0231446,-0.80762,-1.01996,-0.0230972,0.00659205
163,0.000344161,-0.0211678,0.0817165,0.00864734,0.0168887,0.0168887,0.0168887,0.0168887,0.0168887,0.0168887,0.0168887,0.0168887,0.0168887,-0.499345,-0.352311,0.00491349,0.61114,-0.0211678,0.0817165,0.00864734,0.00128015,0.00842756,-0.00674748,-0.00682294,-0.0438542,0.00128967,0.0168887,0.0738582,-2.31365,-0.0993015,1.94511,1.7003,-0.722479,-5.95942,0.634519,0.14678,-0.999535,1.0826,6.1238,-1.02729,-0.00741373,-0.173028,0.00128015,0.00842756,-0.00674748,-0.00682294,-0.0438542,0.00128967,0,0,0,0,0,0,0,0,0,-0.000400871,0.000134571,-0.0010539,0.0291179,-0.000451976,0.000145159,0.000458665,-0.0137773,-0.00462772,-0.0364102,0.0241648,-0.000271741
164,0.000344161,-0.0732889,0.0316215,1.00462,0.03669,0.03669,0.03669,0.03669,0.03669,0.03669,0.03669,0.03669,0.03669,0.843178,0.421494,0.06331,0.944782,-0.0732889,0.0316215,1.00462,0.00731125,0.0886754,0.0243835,0.176639,-0.0646849,0.0439231,0.03669,2.12587,-10.5924,-1.79028,1.97631,-0.892894,-0.50621,-2.48936,11.5586,-1.35135,5.00661,0.391818,1.02481,-7.01454,0.17621,0.45992,0.00731125,0.0886754,0.0243835,0.176639,-0.0646849,0.0439231,0,0,0,0,0,0,0,0,0,0.0598165,0.009306,-0.0108498,0.962423,-0.00556661,-0.00616633,-0.0072335,-0.0787854,-0.744811,-0.967241,0.0820568,-0.000259263
165,0.000344161,-0.0178347,-0.0349072,0.0175907,0.0525133,0.0525133,0.0525133,0.0525133,0.0525133,0.0525133,0.0525133,0.0525133,0.0525133,-0.501802,-0.896749,-0.0474867,1.0287,-0.0178347,-0.0349072,0.0175907,0.000446677,-0.00196964,-0.00767422,-0.00891888,0.0289009,0.0216597,0.0525133,-4.84674,-9.23191,-0.319564,0.321021,0.313885,0.786684,0.317304,8.93586,-0.0186784,-0.204652,-0.0124019,-0.375657,-0.0814612,-0.00121683,0.0407617,0.000446677,-0.00196964,-0.00767422,-0.00891888,0.0289009,0.0216597,0,0,0,0,0,0,0,0,0,-0.00443383,-0.0186313,-0.000446656,0.0790401,-0.00144827,-0.00276868,0.00546215,0.0218639,-0.00677387,-0.07125,-0.0216989,0.00570235
166,0.000344161,0.00993729,-0.0185374,0.0265911,0.0597862,0.0597862,0.0597862,0.0597862,0.0597862,0.0597862,0.0597862,0.0597862,0.0597862,-0.635959,-0.77909,0.0402138,1.0065,0.00993729,-0.0185374,0.0265911,0.00526801,-0.0151805,0.00112867,0.0117266,0.00284189,-0.00556183,0.0597862,2.98114,10.5551,0.157486,-0.677703,-2.14458,0.384576,-2.56294,-8.42049,0.314326,1.49932,0.0459686,-1.12904,-0.803081,0.170073,3.66538,0.00526801,-0.0151805,0.00112867,0.0117266,0.00284189,-0.00556183,0,0,0,0,0,0,0,0,0,0.000909373,0.0109202,0.000465689,0.0362061,-0.000144834,0.00095737,-0.00238163,0.00586108,-0.00137335,-0.0323491,-0.00537297,-0.00318934
167,0.000344161,0.0436335,0.0357622,0.251817,0.0626166,0.0626166,0.0626166,0.0626166,0.0626166,0.0626166,0.0626166,0.0626166,0.0626166,0.536581,-0.935138,-0.0373834,1.0788,0.0436335,0.0357622,0.251817,0.0770017,-0.0156846,-0.00363922,0.0198064,0.00686455,0.0556247,0.0626166,-5.54202,10.0489,-0.355089,0.438153,-4.53256,-0.679527,-1.86485,-5.56,-0.0247422,-0.675706,-8.09617e-05,0.591319,0.201791,-0.0306229,1.02171,0.0770017,-0.0156846,-0.00363922,0.0198064,0.00686455,0.0556247,0,0,0,0,0,0,0,0,0,-0.0297976,-0.0210425,-0.000780376,0.781842,-0.00511122,-0.00292736,0.00625796,0.110467,-0.424595,-0.788674,-0.1104,0.00640765
168,0.000344161,-0.0520391,0.00278461,0.157469,0.0292415,0.0292415,0.0292415,0.0292415,0.0292415,0.0292415,0.0292415,0.0292415,0.0292415,-0.385297,0.900792,0.0707585,0.982287,-0.0520391,0.00278461,0.157469,0.0256962,0.000646353,0.00813198,0.019451,-0.00432253,0.000669718,0.0292415,8.93405,16.027,-0.435863,-0.227182,-0.629019,0.545167,0.261137,-15.3459,-0.0690598,1.29147,0.0391033,-0.387528,-1.06707,0.00910184,-0.0310785,0.0256962,0.000646353,0.00813198,0.019451,-0.00432253,0.000669718,0,0,0,0,0,0,0,0,0,0.0086805,0.0345065,-0.000978063,0.128628,-0.00229456,-0.00337411,-0.0105402,-0.0278922,-0.0183729,-0.123095,0.02824,-0.0102433
169,0.000344161,-0.109182,0.0183464,0.251007,0.0711334,0.0711334,0.0711334,0.0711334,0.0711334,0.0711334,0.0711334,0.0711334,0.0711334,0.52821,0.928867,0.0246209,1.06883,-0.109182,0.0183464,0.251007,0.059852,-0.0430895,0.0117874,0.0282001,-0.0125713,0.0540869,0.0711334,3.57476,-6.29112,-0.225816,0.355345,2.71537,-0.743344,-2.07623,3.68494,0.0236607,-0.511222,-0.00947185,0.641552,0.137531,0.0427345,1.18367,0.059852,-0.0430895,0.0117874,0.0282001,-0.0125713,0.0540869,0,0,0,0,0,0,0,0,0,0.0183738,0.0138077,-0.000780805,0.778808,-0.00309254,-0.00190825,-0.00410603,-0.106124,-0.420623,-0.786123,0.105904,-0.00388123
170,0.000344161,-0.0794325,0.107217,0.380818,0.0376329,0.0376329,0.0376329,0.0376329,0.0376329,0.0376329,0.0376329,0.0376329,0.0376329,0.265116,0.743988,0.0623671,0.792272,-0.0794325,0.107217,0.380818,-0.0185444,0.0624773,0.0413818,-0.016058,0.0118155,0.0162349,0.0376329,13.6416,-15.7985,-1.91831,-4.27012,11.868,-0.196129,0.246365,4.00988,0.826389,-1.23108,-0.270197,-0.875216,5.39398,0.0677885,0.248032,-0.0185444,0.0624773,0.0413818,-0.016058,0.0118155,0.0162349,0,0,0,0,0,0,0,0,0,0.0376629,0.0513645,-0.0106779,0.616261,-0.00325978,-0.00788047,-0.0126992,-0.0446729,-0.249078,-0.617809,0.0420891,-0.0163308
171,0.000344161,0.0337565,-0.00312901,0.0376028,0.0379884,0.0379884,0.0379884,0.0379884,0.0379884,0.0379884,0.0379884,0.0379884,0.0379884,-0.543947,-0.706319,-0.0620116,0.89365,0.0337565,-0.00312901,0.0376028,0.0258666,-0.022731,0.0118032,-0.0512308,0.0157501,-0.00293112,0.0379884,-5.58235,-8.28634,0.223821,2.39027,5.46657,0.200524,1.05771,2.78602,-0.205078,-0.500537,-0.115339,-0.855637,-1.8866,-0.00251709,-0.239675,0.0258666,-0.022731,0.0118032,-0.0512308,0.0157501,-0.00293112,0,0,0,0,0,0,0,0,0,-0.00462396,-0.0210691,0.00160913,0.0647789,-0.000491465,0.000401771,0.00543181,0.00191659,-0.00619974,-0.0626557,-0.00291247,0.00668612
172,0.000344161,0.460987,0.28156,2.20965,0.0123224,0.0123224,0.0123224,0.0123224,0.0123224,0.0123224,0.0123224,0.0123224,0.0123224,0.711325,-0.797988,-0.0876776,1.07259,0.460987,0.28156,2.20965,-0.145796,-0.100548,-0.0152969,-0.0291357,0.00250244,0.190407,0.0123224,-7.95596,27.1316,-1.47918,2.87211,-6.09649,-0.265583,-0.0470862,-21.4961,-0.016076,-0.122767,-0.0439597,-0.254231,-3.03091,-0.060063,-1.90833,-0.145796,-0.100548,-0.0152969,-0.0291357,0.00250244,0.190407,0,0,0,0,0,0,0,0,0,-0.0771388,-0.0312588,-0.00778795,0.878397,-0.0102641,-0.0080093,0.0090239,0.105378,-0.586134,-0.881205,-0.105793,0.00990168
173,0.000344161,-0.0816498,-0.0045774,0.0352183,0.0662109,0.0662109,0.0662109,0.0662109,0.0662109,0.0662109,0.0662109,0.0662109,0.0662109,-0.300151,0.67082,0.0337891,0.735685,-0.0816498,-0.0045774,0.0352183,0.0419982,-0.0123214,0.00611305,0.0168453,-0.00125515,0.0115017,0.0662109,4.30463,5.99201,0.683642,2.40353,-7.34424,-0.11898,-6.69346,1.43389,-0.109307,-3.68811,-0.102303,6.36843,1.28916,0.0118103,0.289819,0.0419982,-0.0123214,0.00611305,0.0168453,-0.00125515,0.0115017,0,0,0,0,0,0,0,0,0,0.00497575,0.0167976,0.00626853,0.166172,-1.33906e-05,0.000444676,-0.00539786,0.0103066,-0.0330535,-0.1673,-0.0113422,-0.004819
174,0.000344161,0.10622,-0.0796251,0.771593,0.0206116,0.0206116,0.0206116,0.0206116,0.0206116,0.0206116,0.0206116,0.0206116,0.0206116,0.294521,-0.791843,-0.0793884,0.848564,0.10622,-0.0796251,0.771593,0.189201,0.109753,-0.0044136,0.0359089,0.0217285,0.0589175,0.0206116,-16.6151,15.7858,-2.0635,-1.56369,-7.77765,-0.198376,-0.777469,-8.11437,-0.822198,-5.18396,0.154824,0.346301,6.82728,-0.0530167,-0.340426,0.189201,0.109753,-0.0044136,0.0359089,0.0217285,0.0589175,0,0,0,0,0,0,0,0,0,-0.050588,-0.0622763,-0.0099477,0.631981,-0.00565608,-0.00958971,0.015922,0.0594088,-0.264318,-0.634009,-0.0576433,0.019883
175,0.000344161,-0.0431976,-0.0723149,0.507053,0.0517082,0.0517082,0.0517082,0.0517082,0.0517082,0.0517082,0.0517082,0.0517082,0.0517082,0.770614,0.473852,0.0482918,0.905932,-0.0431976,-0.0723149,0.507053,-0.00938326,0.0483705,0.0619507,0.0925106,-0.0144382,0.0662336,0.0517082,2.35992,-4.56152,-1.43318,0.994953,-1.09138,-0.496513,-5.44374,5.6961,-0.324943,0.00386075,0.158023,3.50152,-0.926499,0.131863,1.43517,-0.00938326,0.0483705,0.0619507,0.0925106,-0.0144382,0.0662336,0,0,0,0,0,0,0,0,0,0.0443336,0.00908016,-0.00933064,0.938894,-0.00429674,-0.00451744,-0.00383471,-0.0764955,-0.671259,-0.94324,0.0779314,-0.00168206
176,0.000344161,2.16429,0.57294,4.17229,0.000332072,0.000332072,0.000332072,0.000332072,0.000332072,0.000332072,0.000332072,0.000332072,0.000332072,-0.271363,-0.711754,-0.0996679,0.768222,2.16429,0.57294,4.17229,-0.927318,-0.15977,0.0268497,0.114773,-0.00654918,-0.000535488,0.000332072,-13.6595,-23.9914,1.16083,2.33195,19.2387,-0.0027128,-0.0549186,2.58838,0.708722,-2.7115,7.18199e-05,0.0284162,-0.193394,-0.00719697,-4.14578,-0.927318,-0.15977,0.0268497,0.114773,-0.00654918,-0.000535488,0,0,0,0,0,0,0,0,0,-0.019192,-0.0570443,0.0098837,0.186631,-0.000234419,0.000126939,0.0200071,-0.00323088,-0.0387505,-0.18639,0.00316611,0.015851
177,0.000344161,-0.174198,0.58267,3.3019,0.00162139,0.00162139,0.00162139,0.00162139,0.00162139,0.00162139,0.00162139,0.00162139,0.00162139,-0.0773296,-0.671815,0.00857978,0.676305,-0.174198,0.58267,3.3019,0.546286,-0.276361,-1.54244,0.0155896,0.460431,-0.0374447,0.00162139,1.04774,-62.5704,-0.309325,19.2535,62.4948,-2.11175,77.3347,0.249794,0.0946847,-19.8452,0.659528,-81.0974,0.00908446,0.00897524,0.460817,0.546286,-0.276361,-1.54244,0.0155896,0.460431,-0.0374447,0,0,0,0,0,0,0,0,0,0.0019801,0.00603647,-0.00567168,0.291302,-0.00060712,-0.000185178,-0.00138228,-0.00142398,-0.0864865,-0.327844,0.0126236,-0.002076
178,0.000344161,-0.141217,0.206384,1.11636,0.00905521,0.00905521,0.00905521,0.00905521,0.00905521,0.00905521,0.00905521,0.00905521,0.00905521,0.175614,0.898538,0.0909448,0.920044,-0.141217,0.206384,1.11636,-0.114769,-0.0225403,0.0741234,0.0312927,-0.0111885,0.0289102,0.00905521,19.5937,-4.41055,-1.47787,-0.304743,7.84477,0.0219619,-0.682868,-3.29299,0.261415,-4.92875,-0.040856,0.478484,5.02711,0.0426865,-0.911978,-0.114769,-0.0225403,0.0741234,0.0312927,-0.0111885,0.0289102,0,0,0,0,0,0,0,0,0,0.0472083,0.0744987,-0.00564979,0.52627,-0.00666511,-0.00935436,-0.0214325,-0.0676038,-0.190217,-0.52531,0.0670833,-0.0225381
179,0.000344161,-0.177523,0.122803,1.72043,0.0104574,0.0104574,0.0104574,0.0104574,0.0104574,0.0104574,0.0104574,0.0104574,0.0104574,0.632154,0.762092,0.0895426,0.994193,-0.177523,0.122803,1.72043,-0.0442244,0.208427,0.0651932,0.0350783,0.0386925,0.0608058,0.0104574,10.3843,-27.7825,-2.16484,3.11276,7.9406,-0.220736,-0.260723,20.0194,0.205204,-1.4123,0.0279237,-0.124529,-1.82327,0.0962397,-1.33518,-0.0442244,0.208427,0.0651932,0.0350783,0.0386925,0.0608058,0,0,0,0,0,0,0,0,0,0.0750366,0.039311,-0.0100496,0.852393,-0.00860068,-0.0095145,-0.0111879,-0.090376,-0.522729,-0.853948,0.0910422,-0.0116041
180,0.000344161,-0.56081,-0.0192192,2.36266,0.0120805,0.0120805,0.0120805,0.0120805,0.0120805,0.0120805,0.0120805,0.0120805,0.0120805,0.987919,-0.849978,-0.022488,1.30344,-0.56081,-0.0192192,2.36266,0.128825,0.0246323,-0.192093,0.221785,-0.201091,0.189203,0.0120805,0.00110215,-0.13769,0.00129461,1.25492,-0.0350396,-1.09621,11.7921,0.73354,0.137807,1.45106,-0.754742,-4.06031,-2.68676,0.163981,-10.0945,0.128825,0.0246323,-0.192093,0.221785,-0.201091,0.189203,0,0,0,0,0,0,0,0,0,-0.0211466,-0.000322713,-0.00144872,0.917353,-0.00384451,0.00170799,0.000825607,0.118544,-0.832734,-0.930236,-0.128102,0.000793571
181,0.000344161,-0.147793,-0.0490558,1.28075,0.0145794,0.0145794,0.0145794,0.0145794,0.0145794,0.0145794,0.0145794,0.0145794,0.0145794,0.634192,-0.752464,0.0854206,0.987775,-0.147793,-0.0490558,1.28075,-0.0225819,-0.197296,0.0411224,0.0375369,-0.02248,0.0874336,0.0145794,9.82594,-26.0772,2.0968,-2.78644,7.03067,-0.304732,-0.380155,19.1943,0.187715,1.17338,-0.0318575,-0.171992,1.66211,0.102469,-0.728603,-0.0225819,-0.197296,0.0411224,0.0375369,-0.02248,0.0874336,0,0,0,0,0,0,0,0,0,0.0718194,0.0372262,0.0104779,0.851959,0.0068248,0.00851713,-0.0106643,0.0924649,-0.523612,-0.854595,-0.0930083,-0.0108411
182,0.000344161,-0.142549,-0.0671619,0.718795,0.0152929,0.0152929,0.0152929,0.0152929,0.0152929,0.0152929,0.0152929,0.0152929,0.0152929,0.239547,-0.984707,0.0786942,1.01648,-0.142549,-0.0671619,0.718795,0.0351779,0.114129,0.0442047,0.0289986,-0.00894642,0.0759168,0.0152929,16.2984,-7.19282,0.246795,-0.169543,17.5139,0.224838,-1.84199,-10.1785,0.00561631,0.501209,-0.0128274,1.27634,-0.264505,0.0473001,-0.153142,0.0351779,0.114129,0.0442047,0.0289986,-0.00894642,0.0759168,0,0,0,0,0,0,0,0,0,0.0445969,0.0626393,-0.0027656,0.571502,0.00691114,0.00637484,-0.0188555,0.0977488,-0.216442,-0.568811,-0.0979665,-0.0184124
183,0.000344161,0.307467,-0.0961995,1.16844,0.0145401,0.0145401,0.0145401,0.0145401,0.0145401,0.0145401,0.0145401,0.0145401,0.0145401,0.393294,0.890191,-0.0854599,0.976946,0.307467,-0.0961995,1.16844,-0.0874383,0.0261908,0.0232086,0.027956,-0.00576019,0.0567298,0.0145401,-15.6575,19.4266,1.36161,-0.983521,-8.54233,-0.176604,-0.699798,-11.1918,-0.232179,3.93869,-0.0371271,0.344481,-2.85897,-0.0464145,-0.813124,-0.0874383,0.0261908,0.0232086,0.027956,-0.00576019,0.0567298,0,0,0,0,0,0,0,0,0,-0.0602189,-0.0603336,0.00647476,0.698176,0.00708479,0.00740321,0.0173698,-0.0874684,-0.324617,-0.69971,0.0870396,0.0184425
184,0.000344161,0.0284386,-0.00712454,0.311838,0.0868217,0.0868217,0.0868217,0.0868217,0.0868217,0.0868217,0.0868217,0.0868217,0.0868217,0.855024,-0.565316,0.0131783,1.0251,0.0284386,-0.00712454,0.311838,0.0403897,-0.00202103,0.0196915,0.0436969,0.0761623,0.0913877,0.0868217,0.514548,-4.02707,0.268564,-0.682637,0.358799,-1.2049,-2.4394,3.63983,-0.133854,-0.601224,-0.669926,-0.808117,1.29099,0.0737591,2.93568,0.0403897,-0.00202103,0.0196915,0.0436969,0.0761623,0.0913877,0,0,0,0,0,0,0,0,0,0.0117598,0.00204785,0.00169569,0.936245,0.000128878,0.000969739,-0.00117762,0.0969477,-0.741569,-0.948097,-0.102885,9.88948e-05
185,0.000344161,0.0524092,0.129502,0.99643,0.00502357,0.00502357,0.00502357,0.00502357,0.00502357,0.00502357,0.00502357,0.00502357,0.00502357,-0.0116182,-0.994976,-0.0489145,0.996246,0.0524092,0.129502,0.99643,-0.154417,-0.028589,0.307011,-0.0407542,-0.022799,0.00964737,0.00502357,-9.73566,-6.00112,-0.0401399,-0.0478871,-8.6187,1.19686,-1.91609,14.5674,-0.000488207,-0.168268,-0.00842707,0.393962,0.0866528,-0.019168,0.525697,-0.154417,-0.028589,0.307011,-0.0407542,-0.022799,0.00964737,0,0,0,0,0,0,0,0,0,-0.018991,-0.0379802,0.00509672,0.372308,-0.00430843,-0.00578401,0.011264,0.0750215,-0.0989542,-0.35727,-0.0753337,0.0114226
186,0.000344161,0.126671,0.00394266,0.0809023,0.0190477,0.0190477,0.0190477,0.0190477,0.0190477,0.0190477,0.0190477,0.0190477,0.0190477,-0.615381,0.980952,0.012995,1.15807,0.126671,0.00394266,0.0809023,0.0121976,-0.0157044,0.323737,0.00559157,-0.0492539,0.00703457,0.0190477,0.916364,3.22627,-0.029651,0.134952,1.50626,1.73023,-3.08582,-4.8592,0.00131416,-0.123376,-0.0376932,1.77454,-0.0155187,0.000405062,1.23038,0.0121976,-0.0157044,0.323737,0.00559157,-0.0492539,0.00703457,0,0,0,0,0,0,0,0,0,-3.54759e-05,0.00355484,0.000874055,0.045119,-0.000596279,-0.00132761,-0.00105344,-0.0221383,0.000405632,-0.0245794,0.0212688,-0.00105077
187,0.000344161,-0.0765016,-0.351653,0.128674,0.00363588,0.00363588,0.00363588,0.00363588,0.00363588,0.00363588,0.00363588,0.00363588,0.00363588,-0.460255,0.390615,-0.0208168,0.604026,-0.0765016,-0.351653,0.128674,0.0563212,-0.110516,-0.306392,-0.152253,-0.472625,0.000791132,0.00363588,-0.235888,17.4366,-0.326351,18.2395,-14.357,-0.843278,30.1514,-3.00312,-0.460995,-13.6928,-1.24268,-29.8188,-4.19498,0.0285511,-0.461263,0.0563212,-0.110516,-0.306392,-0.152253,-0.472625,0.000791132,0,0,0,0,0,0,0,0,0,-0.00138559,-1.69027e-05,-0.00617353,0.039857,-0.000654155,0.00180486,-0.00218531,0.0153097,-0.00752717,-0.0513537,-0.0324628,0.00102764
188,0.000344161,-0.146264,0.145171,0.614824,0.0131493,0.0131493,0.0131493,0.0131493,0.0131493,0.0131493,0.0131493,0.0131493,0.0131493,-0.167105,0.650582,0.00706379,0.671737,-0.146264,0.145171,0.614824,-0.0494463,0.0054112,-0.268097,-0.0444851,-0.143796,-0.0185214,0.0131493,0.995919,-2.82671,0.37298,-0.153912,0.209402,-2.71957,-9.1828,2.76358,0.159403,-1.19583,-1.266,8.54828,1.20457,0.0121494,0.0196991,-0.0494463,0.0054112,-0.268097,-0.0444851,-0.143796,-0.0185214,0,0,0,0,0,0,0,0,0,0.000964239,0.00351503,0.00415744,0.225533,-0.00029237,-0.000373524,-0.000642742,0.00925481,-0.0604017,-0.255409,-0.0233528,-0.00124919
189,0.000344161,-0.026639,0.0074203,0.36148,0.0697688,0.0697688,0.0697688,0.0697688,0.0697688,0.0697688,0.0697688,0.0697688,0.0697688,0.770022,-0.908275,-0.0302312,1.19114,-0.026639,0.0074203,0.36148,0.0574179,-0.0209714,0.00972748,0.0307844,0.023509,0.10204,0.0697688,-2.26835,11.0201,-0.260031,0.587301,-2.4841,-1.14869,-1.45139,-8.50936,-0.00421715,0.00350012,-0.100233,-0.588997,-0.598221,-0.0390522,1.67891,0.0574179,-0.0209714,0.00972748,0.0307844,0.023509,0.10204,0,0,0,0,0,0,0,0,0,-0.0272593,-0.00860693,-0.0011712,0.883601,-0.00469513,-0.00163882,0.00258058,0.118965,-0.625438,-0.894991,-0.119732,0.00276268
190,0.000344161,-0.092741,-0.0433781,0.0901022,0.0350982,0.0350982,0.0350982,0.0350982,0.0350982,0.0350982,0.0350982,0.0350982,0.0350982,-0.285519,-0.964902,-0.0386208,1.007,-0.092741,-0.0433781,0.0901022,0.0317521,0.0281688,-0.0344257,0.00591052,-0.00497437,0.0200903,0.0350982,-5.81541,-8.56791,-0.154703,-0.175585,-4.10347,1.42263,0.417552,12.7641,0.0137729,0.649674,-0.042049,-0.740951,-0.430712,-0.00617824,0.233297,0.0317521,0.0281688,-0.0344257,0.00591052,-0.00497437,0.0200903,0,0,0,0,0,0,0,0,0,-0.00780352,-0.0222836,0.00191472,0.183992,-0.00221587,-0.00318006,0.0067331,0.044628,-0.0298387,-0.17011,-0.0450982,0.00670425
191,0.000344161,-0.0822825,0.0251083,0.035152,0.0150392,0.0150392,0.0150392,0.0150392,0.0150392,0.0150392,0.0150392,0.0150392,0.0150392,-0.598659,0.433832,0.0849608,0.744192,-0.0822825,0.0251083,0.035152,-0.0898722,-0.0784176,0.0482032,0.0939478,0.0362875,-0.0280466,0.0150392,4.39591,-5.4413,1.64754,7.64592,-1.96531,-0.0621136,0.812625,7.48889,0.830939,-2.31317,0.0845428,0.448959,-5.35785,0.00994626,-1.29674,-0.0898722,-0.0784176,0.0482032,0.0939478,0.0362875,-0.0280466,0,0,0,0,0,0,0,0,0,0.00210632,0.0155154,0.00882687,0.0330377,0.000558978,0.00686438,-0.00139036,0.00952419,-0.00260161,-0.0331768,-0.00831589,-0.0061053
192,0.000344161,-0.181616,0.0486567,0.416926,0.0115738,0.0115738,0.0115738,0.0115738,0.0115738,0.0115738,0.0115738,0.0115738,0.0115738,-0.32724,-0.681953,0.0884262,0.761555,-0.181616,0.0486567,0.416926,0.0254405,0.0313881,0.0368357,0.0605807,-0.0576424,0.0191169,0.0115738,11.4036,19.4963,-1.32132,-4.17393,-16.9393,0.0237557,-0.847619,-2.37543,-0.654242,2.60223,-0.0175327,0.724963,1.52304,0.0177079,-0.294271,0.0254405,0.0313881,0.0368357,0.0605807,-0.0576424,0.0191169,0,0,0,0,0,0,0,0,0,0.0130078,0.0446002,-0.0100146,0.153588,-0.00111188,-0.00288475,-0.0155131,-0.00791423,-0.0289771,-0.152983,0.00716247,-0.0123607
193,0.000344161,-0.0177584,0.0333151,0.0181794,0.0661046,0.0661046,0.0661046,0.0661046,0.0661046,0.0661046,0.0661046,0.0661046,0.0661046,-0.337298,-0.659649,-0.0338954,0.741657,-0.0177584,0.0333151,0.0181794,0.0305049,-0.00196966,0.00562477,0.0133688,-0.00788343,-0.00807393,0.0661046,-4.02395,-5.62929,0.645531,2.3146,6.55324,-0.0309706,-5.09316,-0.906199,0.128073,-2.73406,0.016119,4.73734,0.386144,-0.00710658,0.337642,0.0305049,-0.00196966,0.00562477,0.0133688,-0.00788343,-0.00807393,0,0,0,0,0,0,0,0,0,-0.00548471,-0.0155051,0.00599767,0.145302,-0.00011819,0.000437936,0.00516935,-0.0104653,-0.0268204,-0.145555,0.0105477,0.00438624
194,0.000344161,-0.0263681,-0.0118925,0.0693178,0.0882123,0.0882123,0.0882123,0.0882123,0.0882123,0.0882123,0.0882123,0.0882123,0.0882123,-0.613935,-0.736992,-0.0117877,0.959277,-0.0263681,-0.0118925,0.0693178,0.0281832,-0.0217089,0.0177157,0.00519828,-0.00926003,0.00659108,0.0882123,-1.00164,-2.84983,0.00790089,0.165,0.686975,0.343472,-1.19012,2.18922,-0.0977097,-0.182589,-0.0318069,-1.62011,0.0294813,-0.0539515,2.74091,0.0281832,-0.0217089,0.0177157,0.00519828,-0.00926003,0.00659108,0,0,0,0,0,0,0,0,0,-0.00109571,-0.00358267,0.000177099,0.0435552,-0.000425482,-0.000315179,0.000822052,0.00367745,-0.00230789,-0.0399433,-0.00408812,0.00104781
195,0.000344161,0.116751,-0.180716,0.615013,0.00831244,0.00831244,0.00831244,0.00831244,0.00831244,0.00831244,0.00831244,0.00831244,0.00831244,-0.156897,-0.894799,-0.0916876,0.913066,0.116751,-0.180716,0.615013,0.318082,0.118595,-0.0383091,-0.0465941,-0.0231318,-0.0581093,0.00831244,-16.7248,-19.5763,-0.966665,-2.31741,-0.167451,0.155606,-0.215329,19.627,0.199309,2.99297,-0.00651855,0.0179042,-0.49485,-0.0208684,-0.417589,0.318082,0.118595,-0.0383091,-0.0465941,-0.0231318,-0.0581093,0,0,0,0,0,0,0,0,0,-0.0248048,-0.0631877,-0.00177859,0.258322,-0.00419615,-0.00670211,0.0196093,0.0394709,-0.0607979,-0.257149,-0.0397674,0.0184508
196,0.000344161,0.198584,0.0611267,-0.0328951,0.0180983,0.0180983,0.0180983,0.0180983,0.0180983,0.0180983,0.0180983,0.0180983,0.0180983,-0.550722,-0.714386,-0.0819018,0.905732,0.198584,0.0611267,-0.0328951,-0.0104767,-0.0291432,0.00991106,-0.130054,0.0156179,0.0339689,0.0180983,-7.23646,-10.7438,0.2008,3.25284,6.99676,0.141685,0.36836,3.54846,-0.230193,-0.478201,-0.060886,-0.510722,-2.83576,-0.00104061,0.175257,-0.0104767,-0.0291432,0.00991106,-0.130054,0.0156179,0.0339689,0,0,0,0,0,0,0,0,0,-0.00573543,-0.0274952,0.00151401,0.0621151,-0.000592405,0.000202553,0.00693829,0.00296668,-0.00591127,-0.0605991,-0.00341936,0.00890417
197,0.000344161,-0.0428313,-0.0729399,-0.0641694,0.0144491,0.0144491,0.0144491,0.0144491,0.0144491,0.0144491,0.0144491,0.0144491,0.0144491,-0.571271,0.160136,-0.0249059,0.593814,-0.0428313,-0.0729399,-0.0641694,-0.00937963,0.028288,0.0259463,0.0150864,0.0945723,-0.0245769,0.0144491,-0.0385189,2.01901,-0.0994634,2.15662,-1.40075,-0.10848,1.66781,-0.575429,-0.300756,-0.850136,-0.301689,-1.58211,-1.23355,0.00730314,-0.0215356,-0.00937963,0.028288,0.0259463,0.0150864,0.0945723,-0.0245769,0,0,0,0,0,0,0,0,0,-0.000686072,0.000165326,-0.0013239,0.00549608,-0.000454644,0.000612147,-0.00102353,0.00482173,-0.00040102,-0.00632142,-0.0068929,0.000318449
198,0.000344161,-0.0055275,0.0110042,0.119925,0.044658,0.044658,0.044658,0.044658,0.044658,0.044658,0.044658,0.044658,0.044658,-0.307301,0.893806,0.055342,0.946776,-0.0055275,0.0110042,0.119925,0.0215613,0.0272992,0.0156841,0.00179422,-0.00297427,-0.00818419,0.044658,7.97191,13.134,-0.344815,-0.537784,-1.20155,0.756278,0.256014,-11.9269,-0.095643,1.59974,0.0654033,-0.467866,-1.07296,0.0125385,0.0919267,0.0215613,0.0272992,0.0156841,0.00179422,-0.00297427,-0.00818419,0,0,0,0,0,0,0,0,0,0.00894121,0.0308474,-0.000542159,0.171394,-0.00200604,-0.002633,-0.00958922,-0.0302458,-0.0295773,-0.163674,0.0308701,-0.0090982
199,0.000344161,0.0511436,-0.0166773,0.0756023,0.046817,0.046817,0.046817,0.046817,0.046817,0.046817,0.046817,0.046817,0.046817,-0.123067,-0.879358,-0.053183,0.889519,0.0511436,-0.0166773,0.0756023,0.0690907,0.0347534,-0.0135746,-0.00681126,-0.00627637,-0.0071075,0.046817,-9.93294,-10.9113,-0.52923,-1.56996,0.899106,0.66454,-1.0639,9.9611,0.0831988,0.875033,0.0226537,0.643253,0.711604,-0.0166484,0.345046,0.0690907,0.0347534,-0.0135746,-0.00681126,-0.00627637,-0.0071075,0,0,0,0,0,0,0,0,0,-0.0160102,-0.0379986,-0.000525123,0.288077,-0.00263965,-0.00441964,0.0117026,0.0386308,-0.0699373,-0.281567,-0.0384671,0.0112019
200,0.000344161,0.0223231,-0.0558645,0.0541069,0.0559201,0.0559201,0.0559201,0.0559201,0.0559201,0.0559201,0.0559201,0.0559201,0.0559201,-0.266816,-0.82481,-0.0440799,0.868012,0.0223231,-0.0558645,0.0541069,0.0318383,0.00837556,0.0229454,0.00146341,-0.0016799,-0.0139499,0.0559201,-6.7612,-10.795,-0.141336,-0.636256,3.66682,0.657251,-0.251216,7.10582,0.192511,1.40536,-0.0905524,-0.0468613,-0.71324,-0.00741458,0.24397,0.0318383,0.00837556,0.0229454,0.00146341,-0.0016799,-0.0139499,0,0,0,0,0,0,0,0,0,-0.00922424,-0.0260813,0.000602166,0.194714,-0.00137693,-0.00193177,0.00853535,0.0199429,-0.0379023,-0.187912,-0.0208652,0.00745866
201,0.000344161,-0.0161591,0.0329692,0.28988,0.066947,0.066947,0.066947,0.066947,0.066947,0.066947,0.066947,0.066947,0.066947,0.467959,0.685993,0.030336,0.830959,-0.0161591,0.0329692,0.28988,-0.00222933,-0.0426874,0.0690918,0.00629371,-0.0105371,0.0384889,0.066947,4.59398,-9.29818,-1.20029,3.54833,8.04871,-0.258235,-6.18427,1.26563,0.455348,-5.13408,-0.261564,4.70925,1.55278,0.0598209,1.18515,-0.00222933,-0.0426874,0.0690918,0.00629371,-0.0105371,0.0384889,0,0,0,0,0,0,0,0,0,0.022682,0.0170145,-0.0084776,0.774894,-0.00234328,-0.00395222,-0.00363606,-0.0612131,-0.393676,-0.776786,0.058492,-0.00545272
202,0.000344161,0.0537099,-0.0785297,0.281702,0.0500668,0.0500668,0.0500668,0.0500668,0.0500668,0.0500668,0.0500668,0.0500668,0.0500668,0.517124,0.639405,-0.010253,0.822412,0.0537099,-0.0785297,0.281702,-0.0030899,-0.0123348,0.0569382,-0.00888562,0.00345802,0.0149611,0.0500668,-1.34003,1.81986,0.501706,-1.49409,-2.3602,0.122813,-12.3735,0.486631,-0.200521,2.80979,-0.41966,10.4557,-1.23716,0.000589807,1.63602,-0.0030899,-0.0123348,0.0569382,-0.00888562,0.00345802,0.0149611,0,0,0,0,0,0,0,0,0,-0.00922198,-0.00494217,0.0041011,0.815697,0.000144986,0.000792616,0.000726399,-0.0627228,-0.435449,-0.813899,0.0585608,0.00185119
203,0.000344161,-0.0622537,0.00332236,0.232165,0.087647,0.087647,0.087647,0.087647,0.087647,0.087647,0.087647,0.087647,0.087647,0.718566,-0.537237,0.012353,0.897281,-0.0622537,0.00332236,0.232165,0.0238623,0.0045545,0.0207367,0.06298,0.00028038,0.0787705,0.087647,0.782687,-1.0206,0.318251,-0.622211,0.143754,-0.595478,-7.00859,0.939103,-0.0288933,0.490573,-0.076653,4.57842,0.128316,0.0426534,2.198,0.0238623,0.0045545,0.0207367,0.06298,0.00028038,0.0787705,0,0,0,0,0,0,0,0,0,0.0106881,0.00292268,0.00241792,0.911837,-0.000110554,0.000810136,-0.000939636,0.0798942,-0.616651,-0.917584,-0.0806579,-0.00050295
204,0.000344161,0.038043,0.0482316,0.323198,0.0731962,0.0731962,0.0731962,0.0731962,0.0731962,0.0731962,0.0731962,0.0731962,0.0731962,0.810492,-0.490121,-0.0268038,0.947541,0.038043,0.0482316,0.323198,0.0887127,0.062823,0.0145111,0.0392252,0.0521879,0.0754358,0.0731962,-1.27162,6.3819,-0.879598,1.16272,-0.313864,-0.825648,-4.0768,-6.10608,0.330424,1.20363,-0.421142,1.36114,-2.41458,-0.0513649,2.39247,0.0887127,0.062823,0.0145111,0.0392252,0.0521879,0.0754358,0,0,0,0,0,0,0,0,0,-0.0258255,-0.00500392,-0.00521739,0.941403,-0.00340858,-0.00295036,0.00275884,0.0851897,-0.706558,-0.949514,-0.0888792,0.00103095
205,0.000344161,0.0130386,-0.03545,0.0480215,0.0429231,0.0429231,0.0429231,0.0429231,0.0429231,0.0429231,0.0429231,0.0429231,0.0429231,-0.324582,0.591448,-0.0479207,0.676358,0.0130386,-0.03545,0.0480215,-0.0141025,-0.0228663,0.0741358,-0.0375019,0.0826917,0.00104284,0.0429231,-4.43526,4.01441,-1.72294,-8.4738,9.96522,-1.07551,-17.7797,-13.9927,-0.571299,17.8487,-0.767365,17.5488,-9.33948,-0.017567,0.182836,-0.0141025,-0.0228663,0.0741358,-0.0375019,0.0826917,0.00104284,0,0,0,0,0,0,0,0,0,-0.00702675,-0.0163914,-0.017613,0.136188,-0.00127543,0.000154927,0.0028114,0.0210615,-0.0277331,-0.146202,-0.0279083,0.00577279
206,0.000344161,-1.54412,-1.17182,4.04643,0.000904753,0.000904753,0.000904753,0.000904753,0.000904753,0.000904753,0.000904753,0.000904753,0.000904753,0.347877,0.850691,-0.0990952,0.924399,-1.54412,-1.17182,4.04643,-1.0513,0.00369924,-0.0123062,-0.0613599,0.010428,0.0539117,0.000904753,-18.2643,22.044,1.96741,-0.481365,-8.70602,-0.011388,-0.0242179,-11.7939,-0.424329,5.42857,-0.00289745,0.0599754,-3.77538,-0.0171517,-4.08218,-1.0513,0.00369924,-0.0123062,-0.0613599,0.010428,0.0539117,0,0,0,0,0,0,0,0,0,-0.0668323,-0.0737726,0.0100489,0.66976,0.00705344,0.00966225,0.0203767,-0.073966,-0.296973,-0.669997,0.0740413,0.022989
207,0.000344161,-0.046957,-0.0646207,0.606363,0.043671,0.043671,0.043671,0.043671,0.043671,0.043671,0.043671,0.043671,0.043671,0.778581,0.684268,-0.056329,1.03807,-0.046957,-0.0646207,0.606363,0.0946206,-0.0644634,-0.0106354,0.0201355,0.00349331,0.0287479,0.043671,-3.87131,17.6688,1.34683,-2.53987,-3.51399,-0.7936,-0.67543,-14.1079,0.167069,-1.25527,0.24626,-0.726628,3.85976,-0.080784,0.795696,0.0946206,-0.0644634,-0.0106354,0.0201355,0.00349331,0.0287479,0,0,0,0,0,0,0,0,0,-0.051941,-0.0146817,0.00732088,0.908444,0.00487832,0.00550276,0.00513778,-0.0972791,-0.659847,-0.916486,0.0997766,0.00394157
208,0.000344161,-0.155273,-0.0638151,0.118271,0.0355336,0.0355336,0.0355336,0.0355336,0.0355336,0.0355336,0.0355336,0.0355336,0.0355336,-0.345814,0.581611,0.0644664,0.679717,-0.155273,-0.0638151,0.118271,0.00099206,-0.0240263,0.0721149,0.0484102,0.0600753,0.0194781,0.0355336,5.85487,-3.60182,2.19383,10.2018,-12.031,-0.688843,-12.6118,15.7881,0.534145,-20.9982,-0.493242,12.4658,10.8602,0.0217396,0.0277794,0.00099206,-0.0240263,0.0721149,0.0484102,0.0600753,0.0194781,0,0,0,0,0,0,0,0,0,0.00740884,0.0218028,0.0205001,0.127849,0.000968134,0.00119792,-0.00456373,0.0231226,-0.0245898,-0.134016,-0.0274542,-0.00727041
209,0.000344161,-0.00521338,-0.00451386,0.0294864,0.0891824,0.0891824,0.0891824,0.0891824,0.0891824,0.0891824,0.0891824,0.0891824,0.0891824,-0.514693,-0.897349,-0.0108176,1.03453,-0.00521338,-0.00451386,0.0294864,0.0382511,-0.00201731,-0.00772858,0.00831357,0.0176206,0.00819263,0.0891824,-1.13272,-2.10234,-0.0739348,-0.00507961,0.170305,0.987912,0.272498,1.93725,-0.00903257,-0.0938881,-0.00174855,-0.386714,0.103482,-0.000280518,0.0847293,0.0382511,-0.00201731,-0.00772858,0.00831357,0.0176206,0.00819263,0,0,0,0,0,0,0,0,0,-0.00144021,-0.00421781,4.90063e-05,0.075899,-0.00064064,-0.000808528,0.00125096,0.0210789,-0.00574855,-0.0660971,-0.0209202,0.00129411
210,0.000344161,0.00925636,0.0546408,0.787673,0.0210734,0.0210734,0.0210734,0.0210734,0.0210734,0.0210734,0.0210734,0.0210734,0.0210734,0.667006,0.951017,0.0789266,1.16429,0.00925636,0.0546408,0.787673,0.0852818,-0.0382566,0.0509033,0.0287875,-0.0175991,0.0130804,0.0210734,8.54357,-25.5615,-0.448883,1.02374,8.90996,-0.391947,-0.684542,16.6423,-0.00376617,-0.134871,0.040768,0.194656,-0.943508,0.09795,-0.297786,0.0852818,-0.0382566,0.0509033,0.0287875,-0.0175991,0.0130804,0,0,0,0,0,0,0,0,0,0.0661467,0.0330309,-0.00154931,0.851971,-0.00973503,-0.00332209,-0.00998825,-0.116823,-0.532701,-0.855381,0.117055,-0.0095582
211,0.000344161,-0.0876989,-0.0157167,0.0826411,0.0479792,0.0479792,0.0479792,0.0479792,0.0479792,0.0479792,0.0479792,0.0479792,0.0479792,-0.445948,-0.765903,0.0520208,0.887797,-0.0876989,-0.0157167,0.0826411,0.020779,-0.00806734,0.0314121,0.0378671,0.00204694,0.0166817,0.0479792,5.69099,10.3938,-0.078558,-1.34273,-4.87983,0.4084,0.621707,-5.42627,-0.0717782,-0.411621,-0.125848,-0.763892,1.77007,0.00730967,0.0595435,0.020779,-0.00806734,0.0314121,0.0378671,0.00204694,0.0166817,0,0,0,0,0,0,0,0,0,0.00479995,0.0219798,-0.000682012,0.102911,-3.79477e-05,-0.000184242,-0.00674861,0.00780991,-0.0136263,-0.0985127,-0.00904791,-0.0064591
212,0.000344161,0.0302367,0.00934649,0.00554371,0.0520709,0.0520709,0.0520709,0.0520709,0.0520709,0.0520709,0.0520709,0.0520709,0.0520709,-0.306613,0.634091,-0.0479291,0.705961,0.0302367,0.00934649,0.00554371,-0.0025205,-0.015969,0.0258236,-0.017198,0.0407389,0.00372839,0.0520709,-5.55453,-4.42646,-1.3683,-6.42,12.4104,-0.524677,-11.206,-8.0142,-0.104051,11.403,-0.342525,11.0361,-4.99239,-0.0201465,0.164367,-0.0025205,-0.015969,0.0258236,-0.017198,0.0407389,0.00372839,0,0,0,0,0,0,0,0,0,-0.00802512,-0.0212144,-0.0132092,0.155996,-0.00109036,-0.000633463,0.00596459,0.0165357,-0.0315093,-0.160984,-0.0195536,0.00648874
213,0.000344161,-0.126098,0.00571609,0.0723751,0.0532101,0.0532101,0.0532101,0.0532101,0.0532101,0.0532101,0.0532101,0.0532101,0.0532101,-0.192896,-0.682838,0.0264246,0.710053,-0.126098,0.00571609,0.0723751,0.0905676,-0.0319885,0.0984764,0.0546761,-0.0219539,0.0263549,0.0532101,4.03806,5.48259,-0.731908,-3.72273,-12.5046,-1.07227,-14.2713,7.14814,0.141775,7.55425,0.600614,13.5006,-3.83724,0.0257946,0.698415,0.0905676,-0.0319885,0.0984764,0.0546761,-0.0219539,0.0263549,0,0,0,0,0,0,0,0,0,0.00541279,0.0155925,-0.00808128,0.226234,-0.000689002,0.000442314,-0.00406839,-0.00607912,-0.0542804,-0.235972,0.0118657,-0.0047899
214,0.000344161,-0.093071,-0.0679128,0.0122662,0.064603,0.064603,0.064603,0.064603,0.064603,0.064603,0.064603,0.064603,0.064603,-0.234403,0.684481,-0.035397,0.72437,-0.093071,-0.0679128,0.0122662,-0.010382,-0.0306462,0.0299873,-0.000478804,0.0221002,0.00830436,0.064603,-5.15696,-7.03973,-0.793877,-3.53559,11.9129,-0.456704,-10.328,-4.78009,-0.0144703,6.84901,-0.32853,9.97805,-3.2455,-0.0197642,0.337717,-0.010382,-0.0306462,0.0299873,-0.000478804,0.0221002,0.00830436,0,0,0,0,0,0,0,0,0,-0.00783221,-0.0198439,-0.00870291,0.204129,-0.000629725,0.000457671,0.00591805,0.00828665,-0.0455421,-0.208396,-0.0113509,0.0059355
215,0.000344161,-0.0879755,0.0408994,0.364767,0.0596159,0.0596159,0.0596159,0.0596159,0.0596159,0.0596159,0.0596159,0.0596159,0.0596159,0.575048,0.773515,0.0403841,0.964695,-0.0879755,0.0408994,0.364767,0.0562655,-0.0206395,0.0189743,0.0185035,0.0293398,0.0449958,0.0596159,5.27138,-11.2637,-0.904698,1.11114,3.44779,-0.84455,-1.29992,7.90385,0.148393,-0.882725,0.024809,-0.196465,-0.26931,0.07174,1.13162,0.0562655,-0.0206395,0.0189743,0.0185035,0.0293398,0.0449958,0,0,0,0,0,0,0,0,0,0.0321631,0.0201637,-0.004759,0.818059,-0.0039712,-0.00449438,-0.00564007,-0.0857771,-0.473278,-0.826315,0.0863186,-0.00589088
216,0.000344161,0.02367,-0.0148705,0.0836456,0.0962636,0.0962636,0.0962636,0.0962636,0.0962636,0.0962636,0.0962636,0.0962636,0.0962636,0.0159705,-0.864749,0.00373635,0.864905,0.02367,-0.0148705,0.0836456,0.0966783,-0.00401209,-0.0153275,0.0262486,-0.0191321,0.0442815,0.0962636,0.735392,0.330941,0.0319266,0.129294,0.013245,0.515836,-3.05366,-0.367856,0.00430213,0.135647,0.299127,2.31503,-0.25007,0.00705365,0.654982,0.0966783,-0.00401209,-0.0153275,0.0262486,-0.0191321,0.0442815,0,0,0,0,0,0,0,0,0,0.000900585,0.00310579,0.000526636,0.396623,-0.000478165,-0.000247491,-0.000901811,0.047696,-0.11685,-0.391618,-0.044896,-0.000797889
217,0.000344161,0.918876,-0.38087,2.39707,0.0186983,0.0186983,0.0186983,0.0186983,0.0186983,0.0186983,0.0186983,0.0186983,0.0186983,0.883302,0.152483,-0.0813017,0.900046,0.918876,-0.38087,2.39707,-0.0187053,0.0983229,-0.0164719,0.478644,0.0488267,-0.0228344,0.0186983,-0.637473,-5.46893,0.954083,7.11945,7.0243,-0.0550765,-1.37737,-2.47425,4.14596,-8.8474,0.0331902,0.719102,2.10882,-0.0954466,-1.73881,-0.0187053,0.0983229,-0.0164719,0.478644,0.0488267,-0.0228344,0,0,0,0,0,0,0,0,0,-0.0833714,-0.00772337,0.0105677,1.0127,0.00210748,-4.36677e-05,0.0186806,-0.0355107,-0.801187,-1.01341,0.0363309,-0.00503388
218,0.000344161,0.0314078,0.00490665,0.21298,0.0913311,0.0913311,0.0913311,0.0913311,0.0913311,0.0913311,0.0913311,0.0913311,0.0913311,0.859641,-0.356121,-0.00866891,0.930527,0.0314078,0.00490665,0.21298,0.0677426,0.0296515,0.0401535,0.00534514,0.0753775,0.103934,0.0913311,-0.233804,1.87522,-0.310496,0.312721,0.319613,-0.733111,-6.67597,-2.22624,0.352981,1.32986,-0.526648,3.07451,-1.64749,0.00145271,3.38849,0.0677426,0.0296515,0.0401535,0.00534514,0.0753775,0.103934,0,0,0,0,0,0,0,0,0,-0.00912028,-0.00117375,-0.00238984,0.97304,-0.00175004,-0.000418601,0.00144819,0.0733679,-0.765212,-0.97997,-0.0778806,0.000183489
219,0.000344161,-0.0646167,-0.220685,2.33898,0.0114176,0.0114176,0.0114176,0.0114176,0.0114176,0.0114176,0.0114176,0.0114176,0.0114176,0.750363,0.33917,-0.0179074,0.823651,-0.0646167,-0.220685,2.33898,0.0866645,-0.139524,0.0469666,0.00553406,-0.132709,0.0870372,0.0114176,-0.201158,-7.4976,0.229227,3.67467,4.86352,0.697966,-11.7027,2.6987,-0.152784,2.44475,-1.59382,6.80039,-5.89874,-0.0588433,2.56331,0.0866645,-0.139524,0.0469666,0.00553406,-0.132709,0.0870372,0,0,0,0,0,0,0,0,0,-0.0183716,-0.000302986,0.00525177,0.967904,0.000692194,-0.00435475,-0.00046677,-0.0722944,-0.660994,-0.960454,0.0550292,0.000410449
220,0.000344161,-0.0466328,0.00642942,0.072107,0.0820045,0.0820045,0.0820045,0.0820045,0.0820045,0.0820045,0.0820045,0.0820045,0.0820045,-0.456758,0.905289,-0.0179955,1.01415,-0.0466328,0.00642942,0.072107,0.0082444,-0.0144822,-0.0140648,-0.000471354,-0.0151343,-0.00309753,0.0820045,-2.05258,-3.54704,0.0972262,-0.0770113,-0.0363485,1.03818,0.40172,3.63002,0.0023008,-0.0608698,0.0482525,-0.587646,0.131452,0.00034688,0.113819,0.0082444,-0.0144822,-0.0140648,-0.000471354,-0.0151343,-0.00309753,0,0,0,0,0,0,0,0,0,-0.00244298,-0.00786176,3.00305e-06,0.100112,0.000108605,0.000824437,0.00236906,-0.0246627,-0.0103525,-0.0898713,0.0249939,0.00234616
221,0.000344161,0.11664,0.126592,0.521511,0.0717392,0.0717392,0.0717392,0.0717392,0.0717392,0.0717392,0.0717392,0.0717392,0.0717392,0.928261,-0.374041,0.0145158,1.00089,0.11664,0.126592,0.521511,0.074562,-0.0121584,-0.00882721,0.00374289,0.092782,0.0899275,0.0717392,0.148964,-3.87851,0.235675,-2.46073,-0.0113169,-1.11062,-2.864,3.77319,-0.355052,-0.849205,-1.33497,0.405091,3.18335,0.0993577,1.9374,0.074562,-0.0121584,-0.00882721,0.00374289,0.092782,0.0899275,0,0,0,0,0,0,0,0,0,0.0134955,0.00104667,0.00187713,0.976627,3.25125e-05,0.000358036,-0.00182751,0.0790332,-0.831223,-0.987822,-0.0914551,0.000875463
222,0.000344161,0.0317472,0.0443428,0.10128,0.0800487,0.0800487,0.0800487,0.0800487,0.0800487,0.0800487,0.0800487,0.0800487,0.0800487,0.276473,-0.826193,0.0199513,0.871453,0.0317472,0.0443428,0.10128,0.126876,-0.00409517,-0.0341644,0.0110309,-0.0155311,0.0566956,0.0800487,4.0433,-3.40806,0.39834,0.179586,1.57633,-0.41293,-2.54265,1.79998,0.20117,1.51928,0.403635,1.37357,-1.74321,0.0328319,1.06781,0.126876,-0.00409517,-0.0341644,0.0110309,-0.0155311,0.0566956,0,0,0,0,0,0,0,0,0,0.0116491,0.015691,0.00250822,0.611497,0.000494642,0.00143423,-0.00409889,0.0662344,-0.250233,-0.615968,-0.0623534,-0.00471225
223,0.000344161,0.078722,0.0830121,1.20733,0.0197556,0.0197556,0.0197556,0.0197556,0.0197556,0.0197556,0.0197556,0.0197556,0.0197556,0.829408,-0.805348,0.0802444,1.15885,0.078722,0.0830121,1.20733,0.100293,-0.048078,-0.0631943,0.109378,0.0394707,0.0607941,0.0197556,4.31962,-26.9049,1.15121,-3.23345,5.20767,-0.456691,0.13392,21.6185,-0.138383,-1.44238,-0.111569,-0.514844,4.59282,0.140535,-0.826405,0.100293,-0.048078,-0.0631943,0.109378,0.0394707,0.0607941,0,0,0,0,0,0,0,0,0,0.0721087,0.0168009,0.00623754,0.910181,0.00802957,0.00479374,-0.00544377,0.115321,-0.691458,-0.91538,-0.116041,-0.0042921
224,0.000344161,0.0354147,0.0206454,0.389143,0.0476365,0.0476365,0.0476365,0.0476365,0.0476365,0.0476365,0.0476365,0.0476365,0.0476365,0.508839,0.815738,0.0523635,0.962854,0.0354147,0.0206454,0.389143,0.0406655,-0.00121498,0.0152588,-0.00178909,0.0182781,0.0349302,0.0476365,7.93497,-14.3219,-1.0967,1.12308,4.69738,-0.673389,-1.216,9.58906,0.21487,-1.71117,-0.0443627,0.0499808,0.567445,0.0767321,0.776878,0.0406655,-0.00121498,0.0152588,-0.00178909,0.0182781,0.0349302,0,0,0,0,0,0,0,0,0,0.0398462,0.0303008,-0.00554742,0.777974,-0.00496274,-0.00543168,-0.00851196,-0.0854533,-0.416396,-0.784556,0.0851925,-0.00901905
225,0.000344161,0.0587182,-0.109882,0.489658,0.0747801,0.0747801,0.0747801,0.0747801,0.0747801,0.0747801,0.0747801,0.0747801,0.0747801,0.922378,-0.36014,-0.0252199,0.990514,0.0587182,-0.109882,0.489658,0.057655,-0.0182885,0.0219727,-0.0772366,0.0457592,0.131577,0.0747801,-0.272748,7.4492,-0.548478,6.16054,-0.169853,-0.994044,-4.34768,-7.33807,1.16414,3.17764,-1.11273,0.839747,-9.22829,-0.00555418,3.01827,0.057655,-0.0182885,0.0219727,-0.0772366,0.0457592,0.131577,0,0,0,0,0,0,0,0,0,-0.0253802,-0.00222681,-0.00532834,0.979554,-0.00305026,-0.000339323,0.00428318,0.0775621,-0.826664,-0.989275,-0.0882318,-0.000521235
226,0.000344161,-0.269966,-0.0453129,0.63326,0.0250377,0.0250377,0.0250377,0.0250377,0.0250377,0.0250377,0.0250377,0.0250377,0.0250377,0.974962,-0.708835,-0.0610714,1.20695,-0.269966,-0.0453129,0.63326,-0.118347,-0.101219,0.277702,-0.0173089,-0.0419083,0.0465808,0.0250377,-0.10314,16.6146,-0.244553,15.2474,-0.77631,-1.05665,-8.5421,-15.5684,1.00395,4.6675,-0.796376,-2.24576,-19.8696,0.261701,10.1546,-0.118347,-0.101219,0.277702,-0.0173089,-0.0419083,0.0465808,0,0,0,0,0,0,0,0,0,-0.0573773,-0.00234601,-0.00677533,0.935168,-0.00812072,0.0033176,0.00369461,0.117233,-0.83859,-0.942958,-0.125616,0.000302834
227,0.000344161,-0.762946,2.37663,20.3464,0.00185371,0.00185371,0.00185371,0.00185371,0.00185371,0.00185371,0.00185371,0.00185371,0.00185371,0.998146,0.535974,0.0728136,1.13528,-0.762946,2.37663,20.3464,-0.0809057,-0.117564,0.207588,-0.386324,1.07461,-0.0461828,0.00185371,-0.00854042,0.66534,0.00291812,2.28427,0.000866141,-0.968162,-17.2604,0.0967398,-1.74555,5.7306,0.343112,-0.711829,-10.3915,-0.637804,-2.3742,-0.0809057,-0.117564,0.207588,-0.386324,1.07461,-0.0461828,0,0,0,0,0,0,0,0,0,0.0687145,0.00290505,-0.011088,0.963028,-0.00764746,0.00994154,-0.00730711,-0.103846,-0.883607,-0.970634,0.118023,-6.76522e-05
228,0.000344161,0.279832,-0.10927,0.359838,0.00994062,0.00994062,0.00994062,0.00994062,0.00994062,0.00994062,0.00994062,0.00994062,0.00994062,-0.333335,0.689752,-0.0900594,0.77135,0.279832,-0.10927,0.359838,0.0585054,0.06364,0.0182295,-0.0558833,0.0226696,-0.0183363,0.00994062,-11.6834,-19.8474,-1.28546,-3.02313,15.3362,0.0378808,-0.668712,4.23132,0.669506,1.42224,0.0197275,0.428625,1.71016,-0.014282,-0.119751,0.0585054,0.06364,0.0182295,-0.0558833,0.0226696,-0.0183363,0,0,0,0,0,0,0,0,0,-0.0143313,-0.0453815,-0.00952539,0.15161,-0.000934849,-0.00269286,0.0158111,0.0064713,-0.0284336,-0.151049,-0.00604733,0.0125799
229,0.000344161,-1.08336,0.928054,0.890952,0.00170126,0.00170126,0.00170126,0.00170126,0.00170126,0.00170126,0.00170126,0.00170126,0.00170126,-0.508197,0.40676,0.0982987,0.658317,-1.08336,0.928054,0.890952,0.999512,0.527952,0.0703173,-0.00981474,-0.0924723,-0.0411825,0.00170126,2.71969,-11.5499,2.14607,2.59137,5.50895,-0.00808039,-0.245445,7.12429,1.3724,-12.5114,-0.0131606,0.171754,8.99194,0.00469641,-0.817262,0.999512,0.527952,0.0703173,-0.00981474,-0.0924723,-0.0411825,0,0,0,0,0,0,0,0,0,0.00359992,0.0127745,0.0198872,0.0465957,0.00146823,0.006853,0.000991423,0.0210933,-0.00587676,-0.0459733,-0.0221497,-0.00600393
230,0.000344161,-0.0336535,0.045094,0.369986,0.0461981,0.0461981,0.0461981,0.0461981,0.0461981,0.0461981,0.0461981,0.0461981,0.0461981,0.276958,0.730562,0.0469601,0.782708,-0.0336535,0.045094,0.369986,-0.0283635,0.035444,0.0501366,-0.00203228,-0.0031743,0.0358005,0.0461981,10.2676,-14.6372,-1.62768,-3.10587,12.3868,-0.172832,0.696621,2.28413,0.662126,-0.584059,-0.323681,-1.76988,3.64483,0.0619422,0.703278,-0.0283635,0.035444,0.0501366,-0.00203228,-0.0031743,0.0358005,0,0,0,0,0,0,0,0,0,0.0287469,0.0385071,-0.00970022,0.628197,-0.00251105,-0.00622211,-0.00938842,-0.0440918,-0.256799,-0.629423,0.0408232,-0.0122002
231,0.000344161,-0.0234509,0.00083065,0.390943,0.0660022,0.0660022,0.0660022,0.0660022,0.0660022,0.0660022,0.0660022,0.0660022,0.0660022,0.871037,0.747945,0.0339978,1.1486,-0.0234509,0.00083065,0.390943,0.0614444,-0.0634183,0.0199051,0.0477227,-0.052145,0.0492348,0.0660022,1.25982,-13.3646,-0.493417,2.08313,1.80101,-1.21457,-0.673928,11.587,-0.155698,1.12574,0.426316,-1.60254,-3.20971,0.126518,1.88553,0.0614444,-0.0634183,0.0199051,0.0477227,-0.052145,0.0492348,0,0,0,0,0,0,0,0,0,0.0303379,0.00500358,-0.00289358,0.918529,-0.00433508,-0.00267477,-0.00214262,-0.10978,-0.738416,-0.930475,0.113522,-0.000723976
232,0.000344161,-0.314308,0.0455961,0.764917,0.00659762,0.00659762,0.00659762,0.00659762,0.00659762,0.00659762,0.00659762,0.00659762,0.00659762,-0.191342,-0.884691,0.0934024,0.909952,-0.314308,0.0455961,0.764917,-0.212408,-0.169624,-0.085577,0.0875688,-0.0241797,0.109324,0.00659762,16.3003,21.1394,0.907651,2.31142,-1.116,0.127501,-0.0952887,-19.709,-0.265006,-3.63509,-0.0080652,0.0050897,1.27808,0.0148078,-0.674718,-0.212408,-0.169624,-0.085577,0.0875688,-0.0241797,0.109324,0,0,0,0,0,0,0,0,0,0.0218594,0.0619381,0.00233829,0.234659,0.00277778,0.00504198,-0.0193887,0.0354055,-0.052748,-0.234239,-0.035728,-0.0178808
233,0.000344161,-0.0736606,-0.0196192,0.125312,0.0537396,0.0537396,0.0537396,0.0537396,0.0537396,0.0537396,0.0537396,0.0537396,0.0537396,-0.291908,-0.728729,0.0462604,0.786382,-0.0736606,-0.0196192,0.125312,0.038754,0.0123485,0.036974,0.01403,-0.0058461,0.0221512,0.0537396,6.55698,11.1647,-0.433904,-0.719851,-7.75514,0.291309,-1.7662,-3.33591,-0.274169,0.344459,-0.0703517,1.43788,0.395011,0.0146661,0.203013,0.038754,0.0123485,0.036974,0.01403,-0.0058461,0.0221512,0,0,0,0,0,0,0,0,0,0.00761424,0.0256259,-0.00374698,0.176862,-0.000444518,-0.000468579,-0.00865348,0.000901163,-0.034461,-0.173579,-0.00166314,-0.0071687
234,0.000344161,-0.029608,0.0124571,-0.0674626,0.0273637,0.0273637,0.0273637,0.0273637,0.0273637,0.0273637,0.0273637,0.0273637,0.0273637,-0.455937,0.437688,0.0035478,0.63203,-0.029608,0.0124571,-0.0674626,0.0178007,-0.0270037,0.0352421,-0.0324927,0.0300624,0.0188515,0.0273637,0.107704,-1.59372,0.107011,-0.303211,0.628458,-1.0882,-13.5907,0.994872,0.107614,-0.585525,-1.15783,13.929,0.876279,-0.0120919,-0.270837,0.0178007,-0.0270037,0.0352421,-0.0324927,0.0300624,0.0188515,0,0,0,0,0,0,0,0,0,-0.000382591,0.000388233,0.000831621,0.0532576,-0.000280941,-3.15447e-05,0.000136317,0.0183531,-0.00923291,-0.0637872,-0.0296307,-0.000205494
235,0.000344161,1.31259,-1.18395,3.88386,0.0104773,0.0104773,0.0104773,0.0104773,0.0104773,0.0104773,0.0104773,0.0104773,0.0104773,0.95225,-0.226134,-0.0895227,0.982818,1.31259,-1.18395,3.88386,0.0227455,-0.21072,0.00330353,0.575624,-0.0473886,-0.060613,0.0104773,-0.975123,8.97152,-1.25906,12.1241,2.81203,-0.123989,-1.27724,-13.0961,4.20626,6.82586,-0.170148,0.475181,-17.766,-0.102107,-3.08181,0.0227455,-0.21072,0.00330353,0.575624,-0.0473886,-0.060613,0,0,0,0,0,0,0,0,0,-0.0910349,-0.00899279,-0.0154032,1.01325,-0.00604361,0.000705418,0.0196785,0.0632619,-0.866847,-1.01446,-0.0654372,-0.00504451
236,0.000344161,0.112267,0.0168068,0.695056,0.0275128,0.0275128,0.0275128,0.0275128,0.0275128,0.0275128,0.0275128,0.0275128,0.0275128,0.534372,-0.802212,0.0724872,0.966619,0.112267,0.0168068,0.695056,-0.0285128,-0.109574,0.0130539,0.018712,-0.0129185,0.0692234,0.0275128,10.628,-20.9691,1.6453,-1.69656,6.63908,-0.475409,-0.789847,14.2178,0.269908,2.13964,0.0162522,-0.0705971,-0.459882,0.0910305,0.165388,-0.0285128,-0.109574,0.0130539,0.018712,-0.0129185,0.0692234,0,0,0,0,0,0,0,0,0,0.0567876,0.0402493,0.00858606,0.794186,0.00544494,0.00677122,-0.011305,0.0886191,-0.436331,-0.798809,-0.0885858,-0.0119468
237,0.000344161,-0.00974976,0.005395,0.0742072,0.094503,0.094503,0.094503,0.094503,0.094503,0.094503,0.094503,0.094503,0.094503,0.23231,-0.876817,-0.00549704,0.907086,-0.00974976,0.005395,0.0742072,0.0604225,-0.00491525,-0.0203018,0.0206304,-0.0193553,0.0476624,0.094503,-1.18224,0.572734,-0.108138,-0.0184845,-0.444755,-0.158068,-3.47176,-0.118229,-0.0298258,-0.433014,0.365698,2.37245,0.446103,0.00261576,1.0251,0.0604225,-0.00491525,-0.0203018,0.0206304,-0.0193553,0.0476624,0,0,0,0,0,0,0,0,0,-0.00371937,-0.00436209,0.000107419,0.572122,-0.00119864,-0.00123795,0.00120103,0.0727028,-0.220592,-0.573905,-0.0692393,0.0014984
238,0.000344161,-0.500303,-0.00110304,0.896091,0.00602945,0.00602945,0.00602945,0.00602945,0.00602945,0.00602945,0.00602945,0.00602945,0.00602945,-0.142114,0.804915,0.0939706,0.822749,-0.500303,-0.00110304,0.896091,-0.216697,0.141372,0.014555,0.131151,-0.00533462,0.0901217,0.00602945,17.5867,22.2665,-0.558243,-3.03283,-11.1861,0.0589896,-0.239605,-10.5801,-0.425218,1.66451,-0.00368243,0.186632,1.36942,0.020371,-0.843118,-0.216697,0.141372,0.014555,0.131151,-0.00533462,0.0901217,0,0,0,0,0,0,0,0,0,0.0253861,0.0670195,0.000754106,0.274295,-0.00220146,-0.00492281,-0.0213008,-0.0190318,-0.0681031,-0.27356,0.0189416,-0.019278
239,0.000344161,-0.0109053,0.00367969,0.137905,0.0301579,0.0301579,0.0301579,0.0301579,0.0301579,0.0301579,0.0301579,0.0301579,0.0301579,-0.219795,0.969842,0.0277934,0.994825,-0.0109053,0.00367969,0.137905,-0.00708646,0.0045469,0.00897217,0.0225503,0.0178127,0.00986695,0.0301579,4.6023,6.0657,-0.100429,-0.163523,3.04484,1.56539,0.257758,-9.09963,-0.00471778,0.315591,0.0318311,-0.55612,-0.155748,0.0121838,0.160457,-0.00708646,0.0045469,0.00897217,0.0225503,0.0178127,0.00986695,0,0,0,0,0,0,0,0,0,0.00565363,0.0176279,0.00123418,0.226618,-0.00171534,-0.002193,-0.00525903,-0.0492785,-0.0426903,-0.210874,0.0497749,-0.00523794
240,0.000344161,-4.55435,-2.36383,17.5094,0.000959204,0.000959204,0.000959204,0.000959204,0.000959204,0.000959204,0.000959204,0.000959204,0.000959204,0.516036,-0.649386,0.0990408,0.835347,-4.55435,-2.36383,17.5094,0.513257,-0.774649,-0.135033,-0.361275,0.000851154,0.17105,0.000959204,12.9819,-26.2246,4.74889,-13.3014,25.176,-0.0120379,-0.130679,5.60299,1.82045,21.8476,0.0024678,0.139693,-6.18237,0.0511591,-17.5184,0.513257,-0.774649,-0.135033,-0.361275,0.000851154,0.17105,0,0,0,0,0,0,0,0,0,0.0796019,0.0499642,0.0280263,0.806743,0.00545888,0.0117161,-0.0102155,0.0622561,-0.433547,-0.808213,-0.0622229,-0.0164003
241,0.000344161,0.000330448,0.0179923,0.404899,0.0640712,0.0640712,0.0640712,0.0640712,0.0640712,0.0640712,0.0640712,0.0640712,0.0640712,0.815487,-0.474592,-0.0359288,0.944218,0.000330448,0.0179923,0.404899,0.109329,0.0750751,0.00907898,0.0301228,0.0496845,0.0661728,0.0640712,-1.62334,7.80666,-1.14273,1.39591,-0.137057,-0.739238,-3.89201,-7.66993,0.496235,1.73935,-0.397894,1.49214,-3.15325,-0.0725901,1.99497,0.109329,0.0750751,0.00907898,0.0301228,0.0496845,0.0661728,0,0,0,0,0,0,0,0,0,-0.0345575,-0.00642305,-0.00694472,0.945524,-0.00414767,-0.00373182,0.00377879,0.0842457,-0.712691,-0.952825,-0.0877278,0.00111492
242,0.000344161,0.0676842,0.00195351,0.51664,0.038423,0.038423,0.038423,0.038423,0.038423,0.038423,0.038423,0.038423,0.038423,0.577732,-0.751299,0.061577,0.949745,0.0676842,0.00195351,0.51664,0.0625689,-0.100441,0.00733948,0.0146825,-0.0284815,0.0768261,0.038423,8.00564,-17.8968,1.58149,-2.041,5.61575,-0.636188,-1.01845,12.2134,0.241043,1.57652,-0.0227993,-0.152717,0.462523,0.093019,0.654523,0.0625689,-0.100441,0.00733948,0.0146825,-0.0284815,0.0768261,0,0,0,0,0,0,0,0,0,0.0499409,0.0305405,0.00862968,0.822112,0.00427278,0.00618079,-0.00852189,0.085831,-0.47595,-0.828401,-0.0863438,-0.00895129
243,0.000344161,-0.0894246,-0.0849321,-0.0260878,0.0497976,0.0497976,0.0497976,0.0497976,0.0497976,0.0497976,0.0497976,0.0497976,0.0497976,-0.568697,-0.771518,0.0502024,0.95978,-0.0894246,-0.0849321,-0.0260878,-0.0291537,-0.0108076,0.0199776,0.0111032,0.0226897,-0.00135601,0.0497976,4.42988,7.89001,0.106043,-1.18247,-3.35721,0.319468,1.19493,-4.44338,0.241457,1.03039,-0.0427642,-1.0024,0.237018,0.0110345,-0.166443,-0.0291537,-0.0108076,0.0199776,0.0111032,0.0226897,-0.00135601,0,0,0,0,0,0,0,0,0,0.00230232,0.0166233,0.000300356,0.0569518,-4.85573e-05,0.000651994,-0.00411754,0.00707141,-0.00434703,-0.0535573,-0.00727216,-0.00533195
244,0.000344161,-0.00241733,-0.189921,0.492901,0.0350258,0.0350258,0.0350258,0.0350258,0.0350258,0.0350258,0.0350258,0.0350258,0.0350258,0.635841,-0.528492,-0.0253879,0.82719,-0.00241733,-0.189921,0.492901,0.0691919,0.0360726,-0.064743,-0.00270194,-0.0803537,0.0465166,0.0350258,-1.76043,-3.18936,-1.11064,3.75366,-0.472422,0.546536,-18.3209,3.6642,-0.691012,-8.66733,0.801317,15.9829,5.1036,-0.0338387,1.84501,0.0691919,0.0360726,-0.064743,-0.00270194,-0.0803537,0.0465166,0,0,0,0,0,0,0,0,0,-0.0232664,-0.00571896,-0.00926551,0.89413,-0.00292544,-0.00148014,-0.000731328,0.073004,-0.542545,-0.889312,-0.0657943,0.00280063
245,0.000344161,-0.12659,0.0393978,0.0548978,0.0826516,0.0826516,0.0826516,0.0826516,0.0826516,0.0826516,0.0826516,0.0826516,0.0826516,-0.345271,-0.642363,0.0173484,0.729482,-0.12659,0.0393978,0.0548978,0.0501126,-0.0126251,0.0112219,0.030772,0.00214851,0.00707543,0.0826516,1.9551,2.44811,-0.39585,-1.45711,-3.33766,-0.180048,-7.10026,1.01614,-0.023454,2.01054,0.0814624,6.68496,-0.592832,0.0143805,0.360401,0.0501126,-0.0126251,0.0112219,0.030772,0.00214851,0.00707543,0,0,0,0,0,0,0,0,0,0.00183677,0.00767915,-0.00315847,0.138424,-0.000676835,-0.000926285,-0.00231032,-0.0124852,-0.0254235,-0.140112,0.0133213,-0.00223962
246,0.000344161,0.0849195,-0.0521133,0.267068,0.0845326,0.0845326,0.0845326,0.0845326,0.0845326,0.0845326,0.0845326,0.0845326,0.0845326,0.78883,0.703072,-0.0154674,1.05679,0.0849195,-0.0521133,0.267068,0.0392813,-0.0700272,0.0295181,0.0420944,-0.0264521,0.0570344,0.0845326,-0.995103,5.69015,0.399673,-0.697383,-1.15393,-1.21348,-1.51016,-4.62113,0.0488861,-0.414636,0.343922,-1.0869,1.16413,-0.0135072,2.32999,0.0392813,-0.0700272,0.0295181,0.0420944,-0.0264521,0.0570344,0,0,0,0,0,0,0,0,0,-0.0148876,-0.00383144,0.00215566,0.905909,0.000957949,0.00114081,0.00140257,-0.0993529,-0.667242,-0.917749,0.102528,0.00116531
247,0.000344161,1.72178,-1.78555,4.68522,0.00018045,0.00018045,0.00018045,0.00018045,0.00018045,0.00018045,0.00018045,0.00018045,0.00018045,0.621991,0.563265,-0.0998195,0.845047,1.72178,-1.78555,4.68522,-1.1616,0.146483,-0.117249,0.26574,0.135124,0.209989,0.00018045,-7.49972,8.41349,3.75302,-16.1755,-8.89726,0.00249122,-0.0440815,-1.23802,-1.46645,23.7174,-0.00590467,0.155842,-5.75629,-0.0214588,-4.79698,-1.1616,0.146483,-0.117249,0.26574,0.135124,0.209989,0,0,0,0,0,0,0,0,0,-0.0887231,-0.0321449,0.0292928,0.876236,0.00621149,0.00970219,0.00515819,-0.0626633,-0.529601,-0.877383,0.0639555,0.0121044
248,0.000344161,-0.0900927,-0.0152805,0.119009,0.0242127,0.0242127,0.0242127,0.0242127,0.0242127,0.0242127,0.0242127,0.0242127,0.0242127,-0.577317,0.975787,-0.0236262,1.13403,-0.0900927,-0.0152805,0.119009,0.0496014,-0.0652345,0.103049,0.0284864,-0.0197389,0.000628114,0.0242127,-2.07935,-5.60881,0.0639576,-0.0514313,-2.18703,1.54791,-1.07676,7.88592,-0.00243921,0.183544,-0.023718,0.77164,-0.116832,-0.014274,0.186113,0.0496014,-0.0652345,0.103049,0.0284864,-0.0197389,0.000628114,0,0,0,0,0,0,0,0,0,-0.00194518,-0.00782102,-0.00176099,0.0549926,0.000271028,0.00174822,0.00245794,-0.0248847,-0.000928462,-0.0384829,0.0244502,0.00225947
249,0.000344161,0.275854,-0.456266,1.79496,0.0221439,0.0221439,0.0221439,0.0221439,0.0221439,0.0221439,0.0221439,0.0221439,0.0221439,0.977856,-0.438104,0.000682344,1.07151,0.275854,-0.456266,1.79496,0.0968934,-0.0786254,-0.159157,-0.00464126,-0.184114,0.165576,0.0221439,0.00105585,-1.0371,0.0266686,1.13384,-0.0105819,-1.11711,8.05544,0.771833,0.162769,0.568358,-2.15986,-1.78764,-1.24593,0.0294978,-8.06277,0.0968934,-0.0786254,-0.159157,-0.00464126,-0.184114,0.165576,0,0,0,0,0,0,0,0,0,2.09101e-05,-3.08126e-05,-0.000458412,0.968022,-0.0010716,-6.11557e-05,0.000270082,0.0852394,-0.873658,-0.980785,-0.108679,0.000454809
250,0.000344161,-0.214888,-0.971973,5.40141,0.000597366,0.000597366,0.000597366,0.000597366,0.000597366,0.000597366,0.000597366,0.000597366,0.000597366,0.813076,-0.546093,-0.0994026,0.984475,-0.214888,-0.971973,5.40141,-0.79912,-0.566175,-0.161705,0.117352,-0.0150537,0.113659,0.000597366,-4.25159,18.1243,-2.29471,6.31801,-3.13466,-0.0169615,0.033744,-14.7748,1.00867,4.13335,-0.00537085,-0.00270881,-9.47938,-0.0264954,-5.43244,-0.79912,-0.566175,-0.161705,0.117352,-0.0150537,0.113659,0,0,0,0,0,0,0,0,0,-0.0934757,-0.0208256,-0.0158461,0.938404,-0.0102792,-0.0127628,0.010058,0.0943878,-0.704048,-0.940191,-0.094592,0.00486374
251,0.000344161,0.0281515,-0.0259192,0.242705,0.0865673,0.0865673,0.0865673,0.0865673,0.0865673,0.0865673,0.0865673,0.0865673,0.0865673,0.710333,-0.908604,-0.0134327,1.15339,0.0281515,-0.0259192,0.242705,0.0295338,-0.0175987,0.0294876,0.0349575,0.0131006,0.098208,0.0865673,-1.24776,4.68389,-0.140346,0.251317,-1.278,-1.15216,-1.68399,-3.43404,-0.00969611,-0.103818,-0.0751996,-0.368819,-0.121579,-0.00692531,1.81011,0.0295338,-0.0175987,0.0294876,0.0349575,0.0131006,0.098208,0,0,0,0,0,0,0,0,0,-0.0121679,-0.00481995,-0.000461718,0.863238,-0.002635,-0.00111773,0.00139748,0.116366,-0.572529,-0.874465,-0.116987,0.00172758
252,0.000344161,0.00266075,-0.00432849,0.272667,0.0267423,0.0267423,0.0267423,0.0267423,0.0267423,0.0267423,0.0267423,0.0267423,0.0267423,-0.00140848,-0.936614,0.0732577,0.939475,0.00266075,-0.00432849,0.272667,0.0116723,-0.033691,-0.0768547,0.00767064,0.00735998,0.0355687,0.0267423,15.0387,8.66097,0.832421,1.03725,8.19084,0.517653,-1.25859,-16.8545,0.0255671,0.711933,0.0359882,0.9526,-1.74486,0.0287261,0.0333248,0.0116723,-0.033691,-0.0768547,0.00767064,0.00735998,0.0355687,0,0,0,0,0,0,0,0,0,0.027192,0.0577736,0.00139616,0.375879,0.00393671,0.00659114,-0.0173122,0.0621912,-0.107013,-0.371471,-0.0617578,-0.0171569
253,0.000344161,-0.390835,-0.0190892,0.475236,0.00809967,0.00809967,0.00809967,0.00809967,0.00809967,0.00809967,0.00809967,0.00809967,0.00809967,-0.340456,-0.729967,0.0919003,0.810683,-0.390835,-0.0190892,0.475236,-0.117442,-0.0833643,-0.0148411,0.110734,-0.0429203,0.0132918,0.00809967,12.1852,22.1333,-0.559232,-1.67471,-13.5023,0.0694176,-0.20792,-8.24022,-0.706701,-1.81558,-0.0266764,0.0548949,3.50938,0.0150367,-0.322211,-0.117442,-0.0833643,-0.0148411,0.110734,-0.0429203,0.0132918,0,0,0,0,0,0,0,0,0,0.01327,0.0470695,-0.00477618,0.148378,-0.000323096,-0.00164978,-0.0162492,0.00188323,-0.0271364,-0.147832,-0.00257919,-0.0131278
254,0.000344161,0.0511613,-0.0222553,0.0798197,0.0576271,0.0576271,0.0576271,0.0576271,0.0576271,0.0576271,0.0576271,0.0576271,0.0576271,-0.0904666,-0.859901,-0.0423729,0.865684,0.0511613,-0.0222553,0.0798197,0.0497801,0.0184431,-0.00603485,0.00026834,-0.0124137,0.0127454,0.0576271,-8.1826,-8.06186,-0.430629,-1.44009,1.50683,0.629482,-1.6972,6.50386,0.0345553,0.0276681,0.0921315,1.24163,1.43468,-0.0153531,0.375748,0.0497801,0.0184431,-0.00603485,0.00026834,-0.0124137,0.0127454,0,0,0,0,0,0,0,0,0,-0.0138999,-0.0313173,-0.000261993,0.313234,-0.00216056,-0.00385986,0.00952097,0.0367548,-0.0801415,-0.307,-0.0359576,0.00933381
255,0.000344161,-0.143906,-0.0131134,0.304682,0.0647939,0.0647939,0.0647939,0.0647939,0.0647939,0.0647939,0.0647939,0.0647939,0.0647939,0.680573,0.935206,0.0256394,1.15691,-0.143906,-0.0131134,0.304682,0.0305722,-0.0316494,0.0341568,0.0474547,-0.0176258,0.071046,0.0647939,2.67419,-7.3272,-0.16919,0.307283,2.34085,-1.01511,-1.82758,5.13026,0.00224003,-0.151043,0.065065,-0.0165573,-0.143126,0.0579259,1.53946,0.0305722,-0.0316494,0.0341568,0.0474547,-0.0176258,0.071046,0,0,0,0,0,0,0,0,0,0.021044,0.0101968,-0.000605364,0.853066,-0.00348514,-0.00140303,-0.00307856,-0.115124,-0.545876,-0.862876,0.115598,-0.00268217
256,0.000344161,-0.078274,0.00724626,0.0238489,0.0240697,0.0240697,0.0240697,0.0240697,0.0240697,0.0240697,0.0240697,0.0240697,0.0240697,-0.597531,0.0471844,0.0491649,0.601404,-0.078274,0.00724626,0.0238489,0.0407392,-0.0325229,0.0167636,-0.0749153,0.0318545,0.0170453,0.0240697,0.031282,-1.63308,0.0678281,-1.04067,1.48802,-0.0458226,1.05679,0.223331,0.472404,0.394426,-0.0369926,-0.962026,0.638994,-0.00123593,-0.118608,0.0407392,-0.0325229,0.0167636,-0.0749153,0.0318545,0.0170453,0,0,0,0,0,0,0,0,0,-0.000437267,-0.000199878,0.000511616,0.00235009,-0.00027586,-0.000158563,0.00142746,0.00142873,0.000126861,-0.00264068,-0.00148011,-0.000480937
257,0.000344161,-0.277323,-0.0270087,0.315269,0.00244692,0.00244692,0.00244692,0.00244692,0.00244692,0.00244692,0.00244692,0.00244692,0.00244692,-0.454132,0.997553,-0.0462298,1.09703,-0.277323,-0.0270087,0.315269,0.0451217,-0.114446,0.199019,-0.00599146,0.00869966,-0.0208521,0.00244692,-5.28283,-10.0127,0.0195292,-0.037854,-5.11427,1.36805,-0.118069,15.4043,-0.000263281,0.00164922,0.00094219,-0.298687,0.0632134,-0.00239785,0.101487,0.0451217,-0.114446,0.199019,-0.00599146,0.00869966,-0.0208521,0,0,0,0,0,0,0,0,0,-0.00542061,-0.020111,-0.00426587,0.100625,0.00136966,0.0033167,0.00604628,-0.0367117,-0.00785269,-0.0849542,0.0368081,0.0059613
258,0.000344161,-0.043752,0.0180455,0.346738,0.0929173,0.0929173,0.0929173,0.0929173,0.0929173,0.0929173,0.0929173,0.0929173,0.0929173,0.901578,-0.186058,0.00708274,0.920604,-0.043752,0.0180455,0.346738,0.0727085,-0.0274333,0.00618744,-0.0614457,0.0332117,0.123069,0.0929173,0.0617446,-0.247692,0.0545433,0.140475,-0.436028,-0.458555,-7.56603,0.727472,-0.0727943,0.120522,-0.510053,3.63466,-0.279043,0.0832601,3.58463,0.0727085,-0.0274333,0.00618744,-0.0614457,0.0332117,0.123069,0,0,0,0,0,0,0,0,0,0.00627097,0.000433948,-0.000103481,1.00707,-0.000715794,0.000374581,-0.000909517,0.0448836,-0.818035,-1.0116,-0.049652,0.000793326
259,0.000344161,-0.356294,-0.0383527,2.95451,0.0094269,0.0094269,0.0094269,0.0094269,0.0094269,0.0094269,0.0094269,0.0094269,0.0094269,0.635289,0.49284,0.0160032,0.804201,-0.356294,-0.0383527,2.95451,-0.0988479,-0.0414611,0.110588,0.0552641,-0.0998425,0.0447014,0.0094269,0.657473,5.51239,-0.596373,-0.595867,-3.69984,1.15734,-7.50732,-1.45626,0.56498,-0.739803,-1.38067,2.29083,1.37402,0.0234149,2.26199,-0.0988479,-0.0414611,0.110588,0.0552641,-0.0998425,0.0447014,0,0,0,0,0,0,0,0,0,0.0136152,0.0013543,-0.00657529,0.909801,-0.00170341,0.000196948,0.00166239,-0.0724796,-0.545163,-0.897122,0.0576744,-0.00109825
260,0.000344161,0.0126473,0.00834632,0.255518,0.060299,0.060299,0.060299,0.060299,0.060299,0.060299,0.060299,0.060299,0.060299,0.667188,-0.551104,-0.039701,0.866274,0.0126473,0.00834632,0.255518,0.160429,0.0376814,0.0335388,0.0351732,-0.00682592,0.0680121,0.060299,-3.15547,2.80088,-1.50615,3.72013,-1.56112,-0.230307,-9.12695,-1.2524,-0.425453,-6.12006,0.144275,7.38169,2.39158,-0.0626027,1.48974,0.160429,0.0376814,0.0335388,0.0351732,-0.00682592,0.0680121,0,0,0,0,0,0,0,0,0,-0.0361044,-0.0110753,-0.0105855,0.895398,-0.00408355,-0.00409916,0.0019485,0.0754191,-0.569016,-0.897366,-0.0740446,0.00392695
261,0.000344161,0.135891,0.00462055,0.823888,0.0231302,0.0231302,0.0231302,0.0231302,0.0231302,0.0231302,0.0231302,0.0231302,0.0231302,0.474388,0.716334,-0.0768697,0.862605,0.135891,0.00462055,0.823888,0.00989938,-0.0667679,0.0243607,0.0721695,-0.00193834,0.0313869,0.0231302,-12.2047,23.3207,2.59333,-4.35995,-13.108,-0.277978,-1.38435,-10.3486,-0.757437,6.67518,-0.0490754,0.677294,-2.31985,-0.0579921,-0.116831,0.00989938,-0.0667679,0.0243607,0.0721695,-0.00193834,0.0313869,0,0,0,0,0,0,0,0,0,-0.0601334,-0.0460818,0.0162801,0.772939,0.00457913,0.00898547,0.011466,-0.0648677,-0.397294,-0.775475,0.0643575,0.0147593
262,0.000344161,0.023427,-0.00672472,0.487108,0.0310864,0.0310864,0.0310864,0.0310864,0.0310864,0.0310864,0.0310864,0.0310864,0.0310864,0.508029,-0.906513,0.0689136,1.04145,0.023427,-0.00672472,0.487108,0.0252295,-0.00946903,-0.0188217,0.0298493,0.0226841,0.0546007,0.0310864,10.6957,-18.5464,0.911348,-1.01766,7.49193,-0.438383,-1.17021,11.0311,0.0833544,1.7088,0.0195389,0.433761,-0.684418,0.0810073,0.249341,0.0252295,-0.00946903,-0.0188217,0.0298493,0.0226841,0.0546007,0,0,0,0,0,0,0,0,0,0.0522434,0.0409471,0.00430554,0.76862,0.00617285,0.00471326,-0.0120913,0.103627,-0.405615,-0.773193,-0.103205,-0.0119793
263,0.000344161,0.00311852,0.0833325,0.845202,0.0332772,0.0332772,0.0332772,0.0332772,0.0332772,0.0332772,0.0332772,0.0332772,0.0332772,0.794262,-0.370174,0.0667228,0.878824,0.00311852,0.0833325,0.845202,-0.0500741,-0.19398,0.0018692,0.0206128,0.0182099,0.0704406,0.0332772,1.99764,4.78029,1.67476,6.09713,-7.54538,-0.142702,-6.59407,2.76198,-0.907117,-1.18014,0.120612,5.43659,-5.00032,0.159462,0.312277,-0.0500741,-0.19398,0.0018692,0.0206128,0.0182099,0.0704406,0,0,0,0,0,0,0,0,0,0.063537,0.00824825,0.0134726,0.962366,0.00369944,0.00133517,-0.0059221,0.0707408,-0.700594,-0.963774,-0.0693526,-0.00034006
264,0.000344161,-0.262472,-0.253792,1.95576,0.0145737,0.0145737,0.0145737,0.0145737,0.0145737,0.0145737,0.0145737,0.0145737,0.0145737,0.770801,0.397071,0.0854263,0.871262,-0.262472,-0.253792,1.95576,-0.130068,0.238664,0.00774384,-0.10783,0.00315619,0.0940695,0.0145737,3.14911,6.9332,-2.40009,-3.31314,-8.47372,-0.065059,-3.38069,1.80299,-0.462851,-3.02576,-0.0599477,2.98948,6.59269,0.15008,-1.56454,-0.130068,0.238664,0.00774384,-0.10783,0.00315619,0.0940695,0,0,0,0,0,0,0,0,0,0.0805541,0.0119885,-0.0182562,0.954337,-0.00660297,-0.00335802,-0.00596015,-0.0673192,-0.677079,-0.954911,0.0667513,-0.00188599
265,0.000344161,0.0933685,0.119782,1.26688,0.0273602,0.0273602,0.0273602,0.0273602,0.0273602,0.0273602,0.0273602,0.0273602,0.0273602,0.739396,-0.543033,-0.0726398,0.920254,0.0933685,0.119782,1.26688,0.0114806,0.0150933,0.010376,0.0898676,-0.0343914,0.0907691,0.0273602,-4.77822,12.6876,-2.29006,3.77099,-1.81422,-0.345454,-1.89767,-10.9667,0.165696,-0.679126,-0.126095,1.1737,-3.21164,-0.0914973,-0.542902,0.0114806,0.0150933,0.010376,0.0898676,-0.0343914,0.0907691,0,0,0,0,0,0,0,0,0,-0.0671738,-0.0186276,-0.0140291,0.918845,-0.00709843,-0.00872056,0.00648386,0.0823994,-0.635537,-0.922196,-0.0840043,0.0052024
266,0.000344161,0.098588,-0.0164189,0.059833,0.0399046,0.0399046,0.0399046,0.0399046,0.0399046,0.0399046,0.0399046,0.0399046,0.0399046,-0.264745,-0.908374,-0.0600954,0.948075,0.098588,-0.0164189,0.059833,0.0559255,0.0495688,-0.0143433,0.00808835,0.00294399,-0.00252295,0.0399046,-9.31213,-14.195,-0.444127,-0.797483,0.000821107,0.74741,0.0438997,14.0956,0.103701,1.81639,-0.0531199,-0.341925,-1.00249,-0.0112935,0.238193,0.0559255,0.0495688,-0.0143433,0.00808835,0.00294399,-0.00252295,0,0,0,0,0,0,0,0,0,-0.0124028,-0.0357138,-6.97293e-05,0.19337,-0.00265475,-0.00387586,0.0111261,0.0359351,-0.036034,-0.18604,-0.0364368,0.0104981
267,0.000344161,0.0183201,-0.0316298,0.078891,0.0841421,0.0841421,0.0841421,0.0841421,0.0841421,0.0841421,0.0841421,0.0841421,0.0841421,0.0450823,0.915858,0.0148509,0.917087,0.0183201,-0.0316298,0.078891,0.0224932,-0.0035865,0.0100021,0.0108294,0.00334549,0.0181998,0.0841421,3.05991,1.11795,-0.17812,-0.268203,1.02998,0.759822,-3.34758,-2.16625,0.0180822,-0.442554,-0.197415,2.66187,0.742387,0.0109285,0.60682,0.0224932,-0.0035865,0.0100021,0.0108294,0.00334549,0.0181998,0,0,0,0,0,0,0,0,0,0.00556684,0.0117884,-0.00028417,0.420567,-0.00126757,-0.0015329,-0.00347903,-0.0607754,-0.126926,-0.412869,0.0588347,-0.00347794
268,0.000344161,-0.133231,0.0696239,0.879436,0.0138994,0.0138994,0.0138994,0.0138994,0.0138994,0.0138994,0.0138994,0.0138994,0.0138994,0.221265,-0.789367,0.0861006,0.824301,-0.133231,0.0696239,0.879436,-0.00430012,-0.139229,0.00408936,0.0668447,-0.00200891,0.0298486,0.0138994,18.9203,-10.2321,2.00499,4.08358,3.90555,-0.105134,-0.392072,6.45974,0.870399,4.3908,0.128526,0.218895,-8.544,0.0558939,-0.706259,-0.00430012,-0.139229,0.00408936,0.0668447,-0.00200891,0.0298486,0,0,0,0,0,0,0,0,0,0.0486583,0.0715736,0.00958496,0.57298,0.00366313,0.00907262,-0.0183204,0.049887,-0.220303,-0.573991,-0.0486219,-0.0225779
269,0.000344161,0.59183,0.771416,2.23635,0.0105961,0.0105961,0.0105961,0.0105961,0.0105961,0.0105961,0.0105961,0.0105961,0.0105961,0.989404,-0.654417,0.0643177,1.18799,0.59183,0.771416,2.23635,0.00799982,0.0295365,0.121078,-0.0214349,-0.241457,0.149127,0.0105961,0.0022818,-2.94243,0.0810035,-13.5221,0.236218,-0.974102,4.1099,2.11438,-1.30179,-5.0476,-0.927174,-2.39721,17.7982,-0.572779,-3.94903,0.00799982,0.0295365,0.121078,-0.0214349,-0.241457,0.149127,0,0,0,0,0,0,0,0,0,0.0597105,0.00205517,0.00804001,0.941919,0.00582046,-0.00693461,-0.00461236,0.11409,-0.859054,-0.950449,-0.125776,-0.000114496
270,0.000344161,-0.0556655,-0.0457907,0.321529,0.0363273,0.0363273,0.0363273,0.0363273,0.0363273,0.0363273,0.0363273,0.0363273,0.0363273,0.230123,0.858275,-0.0636727,0.890869,-0.0556655,-0.0457907,0.321529,0.0645747,-0.074293,0.0182304,0.0183661,-0.0143933,0.000395775,0.0363273,-13.607,6.72537,1.22137,0.645517,-3.90896,-0.15032,-1.88967,-2.76075,-0.421219,4.6682,-0.221055,1.18625,-5.26793,-0.0429052,0.3819,0.0645747,-0.074293,0.0182304,0.0183661,-0.0143933,0.000395775,0,0,0,0,0,0,0,0,0,-0.0372661,-0.0515723,0.00523114,0.574285,0.00378401,0.00623966,0.0141255,-0.0649476,-0.222321,-0.575606,0.0625931,0.0159272
271,0.000344161,0.0457678,-0.024288,0.266621,0.0127587,0.0127587,0.0127587,0.0127587,0.0127587,0.0127587,0.0127587,0.0127587,0.0127587,-0.31721,0.987241,0.0408458,1.03776,0.0457678,-0.024288,0.266621,-0.0446932,0.0436915,0.13353,0.0288207,0.0151072,0.0253932,0.0127587,5.89491,9.17858,-0.0581724,-0.0376183,4.66757,1.44531,0.498171,-13.8919,0.00051493,0.237444,0.0176583,-0.802104,-0.175537,0.0111911,0.0373125,-0.0446932,0.0436915,0.13353,0.0288207,0.0151072,0.0253932,0,0,0,0,0,0,0,0,0,0.0062863,0.0224248,0.0028626,0.168209,-0.00218558,-0.00300741,-0.00667963,-0.0453117,-0.0243126,-0.152421,0.0456393,-0.00664339
272,0.000344161,-0.0766602,-0.0421359,0.0564606,0.043374,0.043374,0.043374,0.043374,0.043374,0.043374,0.043374,0.043374,0.043374,-0.54874,-0.883533,0.056626,1.04161,-0.0766602,-0.0421359,0.0564606,0.024033,0.00697583,0.00631285,0.0125414,0.0392505,9.2268e-05,0.043374,5.18957,10.4338,0.389531,-0.525921,-0.662199,0.603303,0.450171,-9.69493,0.0970465,1.16485,0.0189913,-0.37635,-0.596794,0.00294144,-0.130281,0.024033,0.00697583,0.00631285,0.0125414,0.0392505,9.2268e-05,0,0,0,0,0,0,0,0,0,0.00294588,0.0199224,0.00118346,0.061072,0.000607973,0.00278161,-0.00559771,0.0179832,-0.00412522,-0.0549758,-0.0174007,-0.00613048
273,0.000344161,-0.106848,-0.0485883,0.0450917,0.0823394,0.0823394,0.0823394,0.0823394,0.0823394,0.0823394,0.0823394,0.0823394,0.0823394,-0.431954,-0.808303,0.0176606,0.916652,-0.106848,-0.0485883,0.0450917,0.0338727,-0.00931271,0.0319872,0.0273581,-0.0108151,0.00667834,0.0823394,1.99334,3.94105,0.0234984,-0.340591,-1.30096,0.668713,0.851882,-2.53324,-0.0332982,-0.124247,-0.132439,-0.960665,0.513426,0.00595995,0.0636918,0.0338727,-0.00931271,0.0319872,0.0273581,-0.0108151,0.00667834,0,0,0,0,0,0,0,0,0,0.00134783,0.00778925,0.000146571,0.110507,-0.000200355,-4.71428e-06,-0.00237652,0.0131767,-0.0143884,-0.1035,-0.0146093,-0.00228363
274,0.000344161,0.205003,-0.043635,0.387019,0.0579711,0.0579711,0.0579711,0.0579711,0.0579711,0.0579711,0.0579711,0.0579711,0.0579711,0.942029,0.907089,0.0215379,1.30793,0.205003,-0.043635,0.387019,0.13044,-0.0457824,-0.0896225,-0.00548631,0.0415297,0.0598044,0.0579711,0.202546,-7.88338,-0.0568846,1.1748,0.659494,-1.36609,2.46119,7.01889,-0.042864,0.647605,0.370076,-2.80073,-1.77877,0.0455909,-0.0474881,0.13044,-0.0457824,-0.0896225,-0.00548631,0.0415297,0.0598044,0,0,0,0,0,0,0,0,0,0.0188631,0.00121489,-0.000761665,0.913637,-0.00320709,-0.000265004,-0.000691787,-0.118718,-0.785441,-0.928194,0.122834,7.69407e-05
275,0.000344161,1.65852,-0.370905,3.8667,0.0145082,0.0145082,0.0145082,0.0145082,0.0145082,0.0145082,0.0145082,0.0145082,0.0145082,0.985492,-0.0507134,-0.0661485,0.98901,1.65852,-0.370905,3.8667,-0.0995313,-0.131972,0.0950317,0.21315,0.0389361,-0.0733554,0.0145082,0.00594209,5.08523,-0.0682529,7.68182,1.09159,-0.810661,-19.9143,-7.83534,4.00896,0.510063,-0.361049,7.23897,-7.82098,0.429197,8.80868,-0.0995313,-0.131972,0.0950317,0.21315,0.0389361,-0.0733554,0,0,0,0,0,0,0,0,0,-0.0691222,-0.00564221,-0.00430107,1.03304,-0.00177515,0.00229882,0.0159363,0.0150543,-0.908779,-1.04019,-0.0182754,-0.00339506
276,0.000344161,-0.0144249,-0.0107611,0.261503,0.0941825,0.0941825,0.0941825,0.0941825,0.0941825,0.0941825,0.0941825,0.0941825,0.0941825,0.764587,-0.683794,0.00581753,1.02577,-0.0144249,-0.0107611,0.261503,0.0396716,0.00585506,0.00730896,0.0554536,0.00873947,0.0946262,0.0941825,0.426735,-1.33711,0.079303,-0.174332,0.174609,-1.19649,-1.75575,1.17692,-0.0279835,-0.143983,-0.31242,-0.884405,0.329076,0.0348698,2.37865,0.0396716,0.00585506,0.00730896,0.0554536,0.00873947,0.0946262,0,0,0,0,0,0,0,0,0,0.00467764,0.00161276,0.000702628,0.900088,-0.000540959,0.000148953,-0.000581925,0.0983374,-0.645313,-0.91198,-0.101374,-7.17957e-05
277,0.000344161,-0.0710361,-0.179041,0.721521,0.0442929,0.0442929,0.0442929,0.0442929,0.0442929,0.0442929,0.0442929,0.0442929,0.0442929,0.862962,0.0968712,-0.0327587,0.869,-0.0710361,-0.179041,0.721521,0.106986,-0.0936578,0.00293732,-0.0776401,-0.0172031,0.102713,0.0442929,-0.0480259,-2.1764,0.152904,6.97457,2.83928,-0.0239171,-2.68501,-0.591849,2.39752,-4.73973,-0.19866,-0.630388,-2.0558,-0.0339756,2.59388,0.106986,-0.0936578,0.00293732,-0.0776401,-0.0172031,0.102713,0,0,0,0,0,0,0,0,0,-0.0343912,-0.00252933,0.00271473,1.01611,-4.87138e-05,-0.00212226,0.00877526,-0.0236763,-0.782339,-1.01632,0.0215177,-0.00248044
278,0.000344161,-0.117813,-0.0220456,0.246527,0.0223315,0.0223315,0.0223315,0.0223315,0.0223315,0.0223315,0.0223315,0.0223315,0.0223315,-0.208643,-0.703999,0.0776685,0.738362,-0.117813,-0.0220456,0.246527,0.095746,0.0392754,0.0461922,0.0342083,-0.0257108,0.0246167,0.0223315,12.3672,18.7712,-1.23955,-4.07402,-23.9256,-0.130197,-3.54255,5.27229,-0.288887,8.82355,0.104322,3.47563,-4.72748,0.0270249,-0.179616,0.095746,0.0392754,0.0461922,0.0342083,-0.0257108,0.0246167,0,0,0,0,0,0,0,0,0,0.0167587,0.0481688,-0.0130871,0.225425,-0.000795716,0.00108435,-0.0154195,-0.00528044,-0.0513108,-0.226266,0.00606655,-0.0138879
279,0.000344161,0.176916,-0.192987,0.84232,0.0130183,0.0130183,0.0130183,0.0130183,0.0130183,0.0130183,0.0130183,0.0130183,0.0130183,0.0404442,-0.768524,-0.0869817,0.774487,0.176916,-0.192987,0.84232,0.175331,-0.0128584,-0.0250511,-0.0128672,0.0386679,0.0209961,0.0130183,-19.4992,-12.5116,-0.718498,-6.74531,19.3523,-0.10757,-0.398771,-7.01764,-0.499158,-2.13633,0.112559,0.452263,9.07463,-0.0389171,-0.895813,0.175331,-0.0128584,-0.0250511,-0.0128672,0.0386679,0.0209961,0,0,0,0,0,0,0,0,0,-0.0368996,-0.0737112,0.00216513,0.420245,-0.00302382,-0.00947869,0.0203482,0.0252907,-0.131032,-0.421571,-0.0237785,0.0228187
280,0.000344161,-0.0995353,-0.0409747,0.00510684,0.0878646,0.0878646,0.0878646,0.0878646,0.0878646,0.0878646,0.0878646,0.0878646,0.0878646,-0.451149,0.542895,0.0121354,0.705987,-0.0995353,-0.0409747,0.00510684,0.026724,-0.00338712,0.0250463,0.00578038,-0.00666404,0.00759667,0.0878646,0.882477,-0.0885587,0.304729,1.10118,-1.0619,-0.368935,-6.70721,1.24999,0.0701784,-1.24517,-0.0560801,6.40458,0.184971,0.00946886,0.297527,0.026724,-0.00338712,0.0250463,0.00578038,-0.00666404,0.00759667,0,0,0,0,0,0,0,0,0,0.000386488,0.00338959,0.00225348,0.0808535,-0.000135729,0.000759935,-0.00077662,0.017736,-0.012148,-0.0842924,-0.0183635,-0.00107109
281,0.000344161,-0.347054,0.0417287,0.531186,0.0155404,0.0155404,0.0155404,0.0155404,0.0155404,0.0155404,0.0155404,0.0155404,0.0155404,-0.0236878,0.699921,0.0345648,0.701175,-0.347054,0.0417287,0.531186,-0.0189722,0.129166,0.0107193,-0.0713886,-0.0145458,-0.0332506,0.0155404,7.38034,12.7669,1.15402,-1.25326,-26.4626,-2.11494,-2.72915,14.0428,0.303627,-2.27307,-0.571929,1.5729,3.4846,0.03159,0.625066,-0.0189722,0.129166,0.0107193,-0.0713886,-0.0145458,-0.0332506,0,0,0,0,0,0,0,0,0,0.0114526,0.0280469,0.0151211,0.351912,-0.000534201,-0.00228925,-0.00759874,-0.00416309,-0.106181,-0.372954,-0.00170166,-0.00876824
282,0.000344161,0.0339832,-0.0304224,0.376679,0.0398693,0.0398693,0.0398693,0.0398693,0.0398693,0.0398693,0.0398693,0.0398693,0.0398693,0.587318,-0.905449,0.0601307,1.08092,0.0339832,-0.0304224,0.376679,0.093796,-0.0399945,-0.0130539,0.0247099,0.0103617,0.0594079,0.0398693,7.94599,-17.4671,0.718107,-0.919117,5.95194,-0.633298,-1.18611,11.4812,0.0515996,0.917155,-0.00837792,0.199286,0.032384,0.0860595,0.610143,0.093796,-0.0399945,-0.0130539,0.0247099,0.0103617,0.0594079,0,0,0,0,0,0,0,0,0,0.0481333,0.0306663,0.0033867,0.811962,0.00554716,0.00339442,-0.00915102,0.109114,-0.468785,-0.818425,-0.109094,-0.00880523
283,0.000344161,0.956699,0.0110207,1.82548,0.00706575,0.00706575,0.00706575,0.00706575,0.00706575,0.00706575,0.00706575,0.00706575,0.00706575,0.00557919,-0.711098,-0.0929343,0.717167,0.956699,0.0110207,1.82548,0.168863,-0.380346,-0.247242,-0.00599575,-0.0575916,-0.0611887,0.00706575,-20.9554,-29.6622,1.93015,-7.27011,70.3901,-0.295674,-0.139336,-41.6846,-0.530292,-4.80978,0.0926374,0.516505,12.0689,-0.0351096,-2.20265,0.168863,-0.380346,-0.247242,-0.00599575,-0.0575916,-0.0611887,0,0,0,0,0,0,0,0,0,-0.0360236,-0.0792185,0.0241547,0.39234,-0.0015722,-0.00865665,0.022033,0.00681594,-0.117766,-0.397769,-0.00646548,0.0242329
284,0.000344161,0.00601721,0.0228097,0.0516474,0.071589,0.071589,0.071589,0.071589,0.071589,0.071589,0.071589,0.071589,0.071589,-0.624993,-0.441214,-0.028411,0.765567,0.00601721,0.0228097,0.0516474,-0.0129118,-0.0459071,0.0104995,-0.0129282,0.00828454,0.0036515,0.071589,-1.34904,-2.49187,0.472235,2.66268,0.695124,-0.113933,-2.7973,1.79073,-0.302579,-0.196736,-0.369106,0.268472,-2.48875,-0.09229,2.47718,-0.0129118,-0.0459071,0.0104995,-0.0129282,0.00828454,0.0036515,0,0,0,0,0,0,0,0,0,-0.00132206,-0.00477194,0.00246475,0.0268633,-0.000114778,0.00179853,0.000460265,-0.00863046,-0.00156096,-0.0278976,0.00502224,0.00159461
285,0.000344161,0.293136,0.339568,1.46407,0.0298797,0.0298797,0.0298797,0.0298797,0.0298797,0.0298797,0.0298797,0.0298797,0.0298797,0.97012,-0.762422,0.0355953,1.23438,0.293136,0.339568,1.46407,0.101412,-0.00650048,-0.105598,-0.0958094,0.000522614,0.143429,0.0298797,0.0589024,-5.76221,0.134047,-5.75704,0.50011,-1.17389,3.97026,4.96897,-0.326561,-2.11939,-0.97465,-3.43975,7.53686,-0.153322,-1.99458,0.101412,-0.00650048,-0.105598,-0.0958094,0.000522614,0.143429,0,0,0,0,0,0,0,0,0,0.0323095,0.00111536,0.00316828,0.924305,0.00292591,-0.00189281,-0.00179807,0.116506,-0.827247,-0.9371,-0.126247,0.000264322
286,0.000344161,-0.0424141,0.0612838,0.0364035,0.0536348,0.0536348,0.0536348,0.0536348,0.0536348,0.0536348,0.0536348,0.0536348,0.0536348,-0.547323,-0.34051,0.0218538,0.644971,-0.0424141,0.0612838,0.0364035,0.0462283,-0.000182159,-0.00712943,0.025973,-0.0637683,0.00618243,0.0536348,0.474443,-3.34436,-0.420779,-0.171866,1.83653,-0.39406,-4.65878,1.55024,0.350994,1.06553,0.277575,4.36841,-0.954952,-0.00287484,0.253965,0.0462283,-0.000182159,-0.00712943,0.025973,-0.0637683,0.00618243,0,0,0,0,0,0,0,0,0,-1.00136e-05,0.0015638,-0.00339713,0.0246504,-0.000667969,-0.00081248,0.000845283,-0.0133635,-0.00285169,-0.0286623,0.0155015,-0.00102302
287,0.000344161,-0.0461273,-0.0106401,0.947725,0.0400742,0.0400742,0.0400742,0.0400742,0.0400742,0.0400742,0.0400742,0.0400742,0.0400742,0.956452,-0.0815025,0.0599258,0.961787,-0.0461273,-0.0106401,0.947725,0.0754524,-0.0798028,-0.0512161,0.156539,0.038789,-0.00864327,0.0400742,0.146772,-5.3227,0.348517,-6.52548,-3.81246,-0.41346,-9.18572,9.18128,-3.61658,-2.54598,-0.435739,5.06601,9.0821,0.176906,3.17199,0.0754524,-0.0798028,-0.0512161,0.156539,0.038789,-0.00864327,0,0,0,0,0,0,0,0,0,0.0603859,0.00465292,0.0035876,1.02623,0.000314442,-0.000900458,-0.0137584,0.0224493,-0.878014,-1.03088,-0.0264188,0.00438311
288,0.000344161,-0.0189323,-0.0227969,-0.010522,0.0459139,0.0459139,0.0459139,0.0459139,0.0459139,0.0459139,0.0459139,0.0459139,0.0459139,-0.586679,-0.954086,0.0152659,1.12014,-0.0189323,-0.0227969,-0.010522,0.0592236,-0.00604444,0.0197201,0.0135271,0.0198109,0.0166693,0.0459139,1.16108,3.76377,0.0596687,-0.143674,1.24263,1.4737,-1.28945,-4.98747,0.00180734,0.112989,0.0598005,0.701483,0.053482,-0.00561481,0.598486,0.0592236,-0.00604444,0.0197201,0.0135271,0.0198109,0.0166693,0,0,0,0,0,0,0,0,0,0.000167124,0.00466302,-0.000466658,0.051116,-6.30263e-05,0.0010029,-0.00136182,0.022303,-0.00086692,-0.0361818,-0.0215069,-0.00138322
289,0.000344161,-0.0761013,-0.0103849,0.096386,0.0662971,0.0662971,0.0662971,0.0662971,0.0662971,0.0662971,0.0662971,0.0662971,0.0662971,-0.349811,-0.85379,0.0337029,0.923288,-0.0761013,-0.0103849,0.096386,0.0447605,-0.0187538,0.0194426,0.0237043,-0.0108809,0.0114336,0.0662971,4.47745,7.97853,0.134131,0.00109267,-1.94997,0.79217,0.472387,-5.95246,-0.0895359,-0.847792,-0.108881,-0.715096,0.857084,0.00921149,0.146323,0.0447605,-0.0187538,0.0194426,0.0237043,-0.0108809,0.0114336,0,0,0,0,0,0,0,0,0,0.00443171,0.0174453,0.00038807,0.149112,0.000283709,0.0007657,-0.00549495,0.0223145,-0.0235864,-0.140995,-0.0235121,-0.00506257
290,0.000344161,0.00158286,0.0501781,0.150721,0.0680009,0.0680009,0.0680009,0.0680009,0.0680009,0.0680009,0.0680009,0.0680009,0.0680009,0.334661,-0.836202,0.0319991,0.901252,0.00158286,0.0501781,0.150721,0.142216,-0.0026328,-0.0230637,0.00697649,-0.0105152,0.059427,0.0680009,6.16481,-6.65221,0.643413,-0.0857519,2.78136,-0.510785,-2.34635,3.86927,0.25565,2.23093,0.291083,1.21667,-2.19536,0.0474907,0.978961,0.142216,-0.0026328,-0.0230637,0.00697649,-0.0105152,0.059427,0,0,0,0,0,0,0,0,0,0.0204066,0.0238314,0.00374337,0.655334,0.00151298,0.00266444,-0.0063906,0.0742081,-0.286791,-0.660673,-0.0714024,-0.00716914
291,0.000344161,-0.0344429,7.00355e-05,0.458224,0.022609,0.022609,0.022609,0.022609,0.022609,0.022609,0.022609,0.022609,0.022609,0.191777,0.977391,0.0578269,0.997705,-0.0344429,7.00355e-05,0.458224,-0.0636864,-0.0674059,0.0761948,0.0244625,0.00864124,0.0126591,0.022609,12.1691,-3.45576,-0.268227,0.132801,12.5198,0.501509,-3.14161,-9.02958,0.0142101,-0.911617,-0.0227941,2.32543,0.778746,0.038877,0.357951,-0.0636864,-0.0674059,0.0761948,0.0244625,0.00864124,0.0126591,0,0,0,0,0,0,0,0,0,0.0304666,0.0464552,0.00230381,0.53725,-0.00558017,-0.00566014,-0.0138785,-0.0895682,-0.191994,-0.531473,0.0894267,-0.0138142
292,0.000344161,0.418329,-0.0621446,0.398224,0.00722943,0.00722943,0.00722943,0.00722943,0.00722943,0.00722943,0.00722943,0.00722943,0.00722943,-0.487419,-0.936502,-0.0927706,1.05982,0.418329,-0.0621446,0.398224,0.309156,-0.18568,-0.034657,-0.0789005,-0.0245042,-0.029819,0.00722943,-10.0247,-19.5524,-0.521449,-0.248813,-4.26965,0.199023,-0.265075,23.4037,0.0237896,0.620547,-0.00255759,-0.00311327,-0.309589,-0.00675613,-0.130035,0.309156,-0.18568,-0.034657,-0.0789005,-0.0245042,-0.029819,0,0,0,0,0,0,0,0,0,-0.0083636,-0.0372618,-0.000865713,0.0765652,-0.00295326,-0.00620557,0.0110405,0.0270828,-0.00723308,-0.0749215,-0.0273534,0.0111332
293,0.000344161,-0.0163105,-0.0642753,0.435488,0.0279577,0.0279577,0.0279577,0.0279577,0.0279577,0.0279577,0.0279577,0.0279577,0.0279577,0.369039,-0.699882,-0.0720423,0.79449,-0.0163105,-0.0642753,0.435488,0.22023,0.107475,0.0946503,0.0151823,-0.0105848,-8.72612e-05,0.0279577,-13.9897,27.4555,-3.29596,4.40474,-28.9192,-0.00249229,-2.20247,1.48009,-1.24268,-10.6155,0.210281,1.65275,6.27507,-0.0663026,0.114227,0.22023,0.107475,0.0946503,0.0151823,-0.0105848,-8.72612e-05,0,0,0,0,0,0,0,0,0,-0.051314,-0.0514666,-0.0217226,0.704356,-0.00470655,-0.0101622,0.0112433,0.0514827,-0.318933,-0.703435,-0.0494857,0.0170489
294,0.000344161,0.185792,0.0637071,0.549728,0.0455985,0.0455985,0.0455985,0.0455985,0.0455985,0.0455985,0.0455985,0.0455985,0.0455985,0.841647,-0.205754,-0.0154618,0.86657,0.185792,0.0637071,0.549728,0.0757853,0.0297606,-0.00300598,0.0199415,-0.0617509,0.105678,0.0455985,-0.132541,-1.93287,-0.221521,-5.17186,2.31043,-0.0354783,-8.8242,-0.563351,0.786655,3.01234,0.535117,4.90868,2.09581,0.00532544,3.36579,0.0757853,0.0297606,-0.00300598,0.0199415,-0.0617509,0.105678,0,0,0,0,0,0,0,0,0,-0.016279,-0.00127706,-0.0038036,0.999247,-0.00185625,0.00188599,0.0030397,0.0507774,-0.756819,-0.999632,-0.0460437,-0.000438262
295,0.000344161,-0.00524187,0.00781292,0.0911483,0.0637443,0.0637443,0.0637443,0.0637443,0.0637443,0.0637443,0.0637443,0.0637443,0.0637443,-0.287821,-0.809271,0.0362557,0.859695,-0.00524187,0.00781292,0.0911483,0.0326385,-0.0171572,0.0287743,0.0194908,-0.0072366,0.0191162,0.0637443,5.34854,8.87352,0.0340068,0.328575,-3.40954,0.65511,-0.193636,-5.45874,-0.165914,-1.0395,-0.112055,-0.113203,0.703114,0.0108367,0.215691,0.0326385,-0.0171572,0.0287743,0.0194908,-0.0072366,0.0191162,0,0,0,0,0,0,0,0,0,0.00604396,0.0208312,-0.000292835,0.182692,9.70569e-05,0.000461332,-0.00680678,0.016325,-0.0343271,-0.175853,-0.0175179,-0.0059249
296,0.000344161,-0.0202954,-0.087422,0.0327222,0.0496622,0.0496622,0.0496622,0.0496622,0.0496622,0.0496622,0.0496622,0.0496622,0.0496622,-0.614468,-0.634606,-0.0503378,0.884777,-0.0202954,-0.087422,0.0327222,0.000468314,-0.0427706,0.0393114,-0.000751019,0.012378,-0.0517082,0.0496622,-3.85202,-6.73858,0.331445,2.33093,3.64908,0.00463289,1.72198,3.10979,-0.505711,-0.433529,-0.168357,-1.26434,-1.80998,-0.11473,-0.49037,0.000468314,-0.0427706,0.0393114,-0.000751019,0.012378,-0.0517082,0,0,0,0,0,0,0,0,0,-0.00264814,-0.0140372,0.00177587,0.0410554,-0.000266517,0.00111087,0.0026882,-0.00184755,-0.00257844,-0.040616,0.000287761,0.00438833
297,0.000344161,0.0432973,-0.00923872,0.0332459,0.0515983,0.0515983,0.0515983,0.0515983,0.0515983,0.0515983,0.0515983,0.0515983,0.0515983,-0.217194,-0.701223,-0.0484017,0.735683,0.0432973,-0.00923872,0.0332459,0.0182264,0.0254317,0.0289745,0.0184478,-0.0339907,-0.0029192,0.0515983,-7.43055,-11.1252,0.813766,3.11805,14.9203,-0.256799,-7.32095,-3.83839,0.10852,-6.35804,0.234668,7.03676,3.24922,-0.0249016,0.250946,0.0182264,0.0254317,0.0289745,0.0184478,-0.0339907,-0.0029192,0,0,0,0,0,0,0,0,0,-0.0110278,-0.0286233,0.00995861,0.217431,-0.000347698,-0.00156664,0.00907311,-0.00445096,-0.0490553,-0.219709,0.00645772,0.00829917
298,0.000344161,-0.249581,0.529833,7.6176,0.00521021,0.00521021,0.00521021,0.00521021,0.00521021,0.00521021,0.00521021,0.00521021,0.00521021,0.99479,-0.529904,0.0697159,1.12928,-0.249581,0.529833,7.6176,-0.0332351,-0.0321189,0.17569,0.0994502,-0.669224,0.0837305,0.00521021,-0.0107034,-0.598512,0.0310472,-12.288,0.0854036,-0.944622,-1.57946,0.76269,-2.11738,-6.08994,-0.751771,-1.52578,17.8481,-0.647561,-4.51236,-0.0332351,-0.0321189,0.17569,0.0994502,-0.669224,0.0837305,0,0,0,0,0,0,0,0,0,0.0660379,0.00280996,0.0107949,0.961683,0.00564916,-0.0108056,-0.00705998,0.105904,-0.879582,-0.969373,-0.120114,0.000210494
299,0.000344161,-0.0637493,0.0248642,0.339411,0.0136803,0.0136803,0.0136803,0.0136803,0.0136803,0.0136803,0.0136803,0.0136803,0.0136803,-0.330139,0.549716,-0.0654844,0.644568,-0.0637493,0.0248642,0.339411,0.00963044,-0.110927,-0.0830383,-0.0778537,-0.0420089,0.0126686,0.0136803,-4.17367,32.0711,-2.70169,-4.62361,-3.4788,-1.39251,-10.4465,-28.5286,-1.78432,27.5018,-1.15228,9.6809,-22.903,0.0104837,0.42621,0.00963044,-0.110927,-0.0830383,-0.0778537,-0.0420089,0.0126686,0,0,0,0,0,0,0,0,0,-0.00819664,-0.0138936,-0.0316395,0.122011,-0.00172258,0.00351326,-0.00238427,0.0258502,-0.0256892,-0.136767,-0.0377931,0.00704237
300,0.000344161,0.119056,-0.067301,0.0492845,0.035391,0.035391,0.035391,0.035391,0.035391,0.035391,0.035391,0.035391,0.035391,-0.389694,0.617193,-0.064609,0.732778,0.119056,-0.067301,0.0492845,-0.0153936,-0.006322,0.0139666,-0.0123426,0.0372007,-0.00686622,0.035391,-6.59163,-8.24617,-1.49222,-5.34447,10.0947,-0.0532812,-3.21428,-1.96755,0.121842,5.30892,0.0152526,3.01398,0.102846,-0.0126068,0.151015,-0.0153936,-0.006322,0.0139666,-0.0123426,0.0372007,-0.00686622,0,0,0,0,0,0,0,0,0,-0.00813318,-0.0255155,-0.0114713,0.117267,-0.00131471,-0.00351412,0.00806711,0.0155996,-0.0198211,-0.117661,-0.0150751,0.00742224
301,0.000344161,-0.237935,-0.00161648,2.52928,0.0126977,0.0126977,0.0126977,0.0126977,0.0126977,0.0126977,0.0126977,0.0126977,0.0126977,0.845695,-0.449134,0.0873023,0.961531,-0.237935,-0.00161648,2.52928,-0.107995,-0.200938,-0.0609512,0.179295,0.0629683,0.144285,0.0126977,3.37317,-15.9119,2.5626,-5.33123,0.655559,-0.213684,-0.553134,15.4943,-1.76345,-6.38264,-0.183618,0.200458,11.7155,0.155719,-2.1766,-0.107995,-0.200938,-0.0609512,0.179295,0.0629683,0.144285,0,0,0,0,0,0,0,0,0,0.0827949,0.0140401,0.0144651,0.958912,0.00628247,0.00915153,-0.0102066,0.0873555,-0.743872,-0.961659,-0.088562,-0.000785781
302,0.000344161,-0.0429713,0.050426,0.406133,0.0521519,0.0521519,0.0521519,0.0521519,0.0521519,0.0521519,0.0521519,0.0521519,0.0521519,0.535071,0.630535,0.0379375,0.827837,-0.0429713,0.050426,0.406133,-0.00945687,-0.0289345,0.0723648,0.0427207,0.00926113,0.0514666,0.0521519,4.51844,-7.77967,-1.67019,7.10167,9.22786,0.048065,-10.9502,-1.40522,0.707606,-10.1591,-0.35656,9.35273,3.00702,0.0730801,1.19129,-0.00945687,-0.0289345,0.0723648,0.0427207,0.00926113,0.0514666,0,0,0,0,0,0,0,0,0,0.0304904,0.0163328,-0.012535,0.82631,-0.00292938,-0.00445626,-0.00246051,-0.0634561,-0.450777,-0.825106,0.0599831,-0.00558941
303,0.000344161,-0.0704422,-0.00105983,0.137053,0.0501354,0.0501354,0.0501354,0.0501354,0.0501354,0.0501354,0.0501354,0.0501354,0.0501354,-0.0918161,0.923589,0.0498646,0.929481,-0.0704422,-0.00105983,0.137053,-0.0373106,0.0224694,-0.0115814,-0.0052284,-0.00788546,-0.0104432,0.0501354,9.56568,9.07312,-0.485693,-1.15038,2.82395,0.906137,-1.15778,-11.8266,-0.0211961,0.449685,-0.025795,0.748259,0.701755,0.0195332,0.272469,-0.0373106,0.0224694,-0.0115814,-0.0052284,-0.00788546,-0.0104432,0,0,0,0,0,0,0,0,0,0.0149826,0.0366676,-0.000382288,0.312092,-0.00284261,-0.00424995,-0.0111064,-0.0497543,-0.0778968,-0.303147,0.0494175,-0.0109288
304,0.000344161,0.978475,0.624985,2.04169,0.021383,0.021383,0.021383,0.021383,0.021383,0.021383,0.021383,0.021383,0.021383,0.944928,-0.270885,-0.078617,0.986128,0.978475,0.624985,2.04169,0.0994339,-0.0987256,-0.00926971,0.275496,-0.0517645,0.0212873,0.021383,-0.910901,12.5636,-1.32946,12.6028,1.78857,-0.290862,-2.70539,-15.3306,3.56029,6.72581,-0.383471,0.763543,-19.9536,-0.115762,-0.0998486,0.0994339,-0.0987256,-0.00926971,0.275496,-0.0517645,0.0212873,0,0,0,0,0,0,0,0,0,-0.079306,-0.00743792,-0.0144859,1.00343,-0.00611013,0.000204073,0.0157983,0.0702438,-0.856359,-1.00643,-0.0745962,-0.00385296
305,0.000344161,-0.350406,0.221016,1.03034,0.00629297,0.00629297,0.00629297,0.00629297,0.00629297,0.00629297,0.00629297,0.00629297,0.00629297,-0.22412,-0.613975,-0.00127765,0.653603,-0.350406,0.221016,1.03034,0.0273274,-0.0448867,-0.711199,-0.00595861,0.375797,-0.00869987,0.00629297,-0.12066,-6.57549,0.0635713,4.58901,7.95671,-2.61898,20.8408,-1.03081,-0.0283956,-5.4355,1.51133,-21.2856,0.625472,0.0284214,-0.585602,0.0273274,-0.0448867,-0.711199,-0.00595861,0.375797,-0.00869987,0,0,0,0,0,0,0,0,0,-0.000763938,-0.000342089,0.000850352,0.177067,-0.000499668,-0.000663506,-4.71951e-05,-0.0126477,-0.0457513,-0.210369,0.031519,0.000223184
306,0.000344161,0.213915,-0.155957,1.20293,0.00327014,0.00327014,0.00327014,0.00327014,0.00327014,0.00327014,0.00327014,0.00327014,0.00327014,-0.312392,0.777323,-0.0967299,0.843313,0.213915,-0.155957,1.20293,0.23793,-0.0545899,-0.0489674,-0.188893,0.00198317,-0.0638576,0.00327014,-13.9496,-23.8304,-0.143415,0.286743,11.7895,0.0390493,-0.138991,11.827,0.693235,-3.31657,0.00773325,-0.0116328,3.18579,-0.0135252,-1.05231,0.23793,-0.0545899,-0.0489674,-0.188893,0.00198317,-0.0638576,0,0,0,0,0,0,0,0,0,-0.0169253,-0.0532298,-0.002486,0.164405,0.000543987,0.000505954,0.0178502,-0.0100805,-0.0316554,-0.164504,0.0101776,0.0149416
307,0.000344161,-0.0501995,0.270767,0.540709,0.0141403,0.0141403,0.0141403,0.0141403,0.0141403,0.0141403,0.0141403,0.0141403,0.0141403,0.102943,0.71609,0.0858597,0.728529,-0.0501995,0.270767,0.540709,-0.0652387,-0.096807,-0.0262871,-0.104159,0.133898,0.00783634,0.0141403,21.1238,9.89814,0.0163147,-22.13,-37.3747,-0.415077,2.20714,27.5268,0.352882,17.1971,-0.0893592,-1.80968,4.66213,0.0422504,-0.938166,-0.0652387,-0.096807,-0.0262871,-0.104159,0.133898,0.00783634,0,0,0,0,0,0,0,0,0,0.0398545,0.0806495,0.00873045,0.478235,-0.00199205,-0.00953537,-0.0233995,-0.0169096,-0.161078,-0.482648,0.017355,-0.0243926
308,0.000344161,-0.0636797,0.0405164,0.469762,0.0290588,0.0290588,0.0290588,0.0290588,0.0290588,0.0290588,0.0290588,0.0290588,0.0290588,0.270367,-0.81398,0.0709412,0.860636,-0.0636797,0.0405164,0.469762,0.037545,-0.149139,-0.0289345,0.016494,0.00963449,0.0389919,0.0290588,14.8767,-11.0733,1.66992,1.43054,5.39869,-0.214378,-1.1567,5.73831,0.666278,4.89404,0.214687,0.735711,-6.36509,0.0647691,-0.0487775,0.037545,-0.149139,-0.0289345,0.016494,0.00963449,0.0389919,0,0,0,0,0,0,0,0,0,0.0426127,0.0564548,0.00814134,0.60951,0.00361896,0.00706648,-0.0147024,0.0615589,-0.247793,-0.611944,-0.0593157,-0.0175974
309,0.000344161,0.0971043,0.0282367,0.428845,0.020592,0.020592,0.020592,0.020592,0.020592,0.020592,0.020592,0.020592,0.020592,0.380842,0.979408,-0.0523826,1.05215,0.0971043,0.0282367,0.428845,0.00260162,-0.0059396,0.0821915,0.0156152,0.00493622,-0.00417495,0.020592,-9.69471,10.3284,0.187522,-0.211771,-9.68899,-0.0641765,-2.83638,-0.736525,-0.00410308,0.463362,7.98143e-05,1.81337,-0.279827,-0.0404465,0.594167,0.00260162,-0.0059396,0.0821915,0.0156152,0.00493622,-0.00417495,0,0,0,0,0,0,0,0,0,-0.0365828,-0.0372391,-0.00159699,0.683803,0.00511253,0.00341281,0.011279,-0.105746,-0.306933,-0.683623,0.105796,0.0109983
310,0.000344161,0.0632315,-0.0458336,0.0657365,0.0354886,0.0354886,0.0354886,0.0354886,0.0354886,0.0354886,0.0354886,0.0354886,0.0354886,-0.596483,0.416549,-0.0645114,0.730388,0.0632315,-0.0458336,0.0657365,0.038775,0.0354854,0.0433478,-0.0315136,0.0565661,-0.0316705,0.0354886,-3.02019,2.46451,-1.28273,-5.5138,0.628333,-0.163348,0.166475,-3.15608,-0.723866,1.43252,0.166854,0.917413,4.12712,-0.0400682,-1.14962,0.038775,0.0354854,0.0433478,-0.0315136,0.0565661,-0.0316705,0,0,0,0,0,0,0,0,0,-0.00249276,-0.0105126,-0.00731712,0.0305563,-0.00105984,-0.00515536,0.000617569,0.0108135,-0.0024207,-0.0317563,-0.00857925,0.00403577
311,0.000344161,-0.00485229,0.162252,0.666375,0.0527369,0.0527369,0.0527369,0.0527369,0.0527369,0.0527369,0.0527369,0.0527369,0.0527369,0.947263,0.394762,0.0449145,1.02721,-0.00485229,0.162252,0.666375,0.097956,-0.0856107,-0.0119171,0.11079,-0.023634,0.0425088,0.0527369,0.30126,-12.1486,-0.65433,12.4806,0.361319,-0.938054,-2.73124,11.7922,-1.54205,4.02794,1.30488,-0.317886,-16.6707,0.122417,2.38275,0.097956,-0.0856107,-0.0119171,0.11079,-0.023634,0.0425088,0,0,0,0,0,0,0,0,0,0.0428163,0.0029966,-0.00734247,0.978058,-0.00429572,-5.69357e-05,-0.00615578,-0.0819426,-0.848994,-0.987558,0.094755,0.00182515
312,0.000344161,-0.0653963,0.0326476,1.18391,0.0125319,0.0125319,0.0125319,0.0125319,0.0125319,0.0125319,0.0125319,0.0125319,0.0125319,0.38322,-0.773742,0.0874681,0.867862,-0.0653963,0.0326476,1.18391,-0.101621,-0.190472,-0.015831,0.0345485,-0.00078392,0.0435138,0.0125319,16.5218,-22.7227,2.49813,-0.37367,11.0843,-0.164977,-0.495622,11.7038,0.784227,5.81947,0.0729791,0.264508,-5.47844,0.0728439,-0.952798,-0.101621,-0.190472,-0.015831,0.0345485,-0.00078392,0.0435138,0,0,0,0,0,0,0,0,0,0.0606482,0.0620755,0.0135663,0.701741,0.00498108,0.00951027,-0.0159315,0.0658522,-0.324918,-0.703549,-0.0651303,-0.0194436
313,0.000344161,-0.0289036,-0.00543378,0.18171,0.0902779,0.0902779,0.0902779,0.0902779,0.0902779,0.0902779,0.0902779,0.0902779,0.0902779,0.674782,-0.567696,0.0042239,0.881832,-0.0289036,-0.00543378,0.18171,0.0355968,0.0154571,0.0250931,0.0552768,-0.00879002,0.0758163,0.0902779,0.276897,-0.0604432,0.0633032,-0.345145,0.0806885,-0.495394,-7.97843,0.0086583,-0.0285885,0.196675,0.0270731,5.73066,0.153903,0.0218646,2.06606,0.0355968,0.0154571,0.0250931,0.0552768,-0.00879002,0.0758163,0,0,0,0,0,0,0,0,0,0.00321043,0.0010584,0.000827937,0.893107,-0.000748383,-4.03346e-05,-0.000370632,0.0776236,-0.574489,-0.89781,-0.0774408,-1.56686e-05
314,0.000344161,-0.0180263,-0.0170308,0.213237,0.0998177,0.0998177,0.0998177,0.0998177,0.0998177,0.0998177,0.0998177,0.0998177,0.0998177,0.672806,-0.869236,0.000182292,1.0992,-0.0180263,-0.0170308,0.213237,0.0298431,-0.0109506,0.0286713,0.039226,-0.000318527,0.0949409,0.0998177,0.0394833,0.308487,-0.0262603,0.023311,-0.121702,-1.15083,-1.50805,-0.168759,-0.00828108,-0.106816,-0.0706595,-0.457725,0.100536,0.016805,1.75254,0.0298431,-0.0109506,0.0286713,0.039226,-0.000318527,0.0949409,0,0,0,0,0,0,0,0,0,-0.000416547,0.000101997,0.000128745,0.850617,-0.00103651,-0.000500854,-8.99108e-05,0.109638,-0.544411,-0.861839,-0.110347,0.000314094
315,0.000344161,-0.0352097,0.0119711,0.361434,0.0567087,0.0567087,0.0567087,0.0567087,0.0567087,0.0567087,0.0567087,0.0567087,0.0567087,0.820815,0.882089,0.0432913,1.20569,-0.0352097,0.0119711,0.361434,0.0638901,-0.0330044,0.0305023,0.0465052,-0.0280647,0.0350445,0.0567087,2.46746,-15.807,-0.375684,1.06591,2.91686,-1.09737,-0.803199,12.9253,-0.0271079,0.348536,0.155002,-0.872271,-1.42641,0.121383,1.31404,0.0638901,-0.0330044,0.0305023,0.0465052,-0.0280647,0.0350445,0,0,0,0,0,0,0,0,0,0.0380904,0.00953308,-0.0019952,0.900339,-0.00559174,-0.00209168,-0.00302667,-0.115796,-0.676778,-0.911007,0.117066,-0.00234152
316,0.000344161,-0.161222,0.14613,-0.0956556,0.0251548,0.0251548,0.0251548,0.0251548,0.0251548,0.0251548,0.0251548,0.0251548,0.0251548,-0.418641,-0.4799,0.0425906,0.638262,-0.161222,0.14613,-0.0956556,0.0465247,-0.0169613,0.0359411,0.0692821,-0.0715275,0.0237204,0.0251548,1.82208,-14.0823,-1.34681,-1.23775,3.2479,-1.15458,-16.6045,10.9956,0.981529,11.3859,1.15411,16.4011,-10.2943,-0.0133804,0.299071,0.0465247,-0.0169613,0.0359411,0.0692821,-0.0715275,0.0237204,0,0,0,0,0,0,0,0,0,0.00248682,0.00596255,-0.014264,0.0725613,-0.0012788,0.000626243,0.00187357,-0.0220079,-0.0132285,-0.0837478,0.0328337,-0.00332879
317,0.000344161,0.0885811,0.472229,1.23375,0.0189242,0.0189242,0.0189242,0.0189242,0.0189242,0.0189242,0.0189242,0.0189242,0.0189242,0.910403,0.896731,0.0810758,1.28044,0.0885811,0.472229,1.23375,0.0119865,-0.100559,-0.0386887,0.0817838,-0.00361729,0.0818641,0.0189242,2.21122,-25.6748,-0.395418,2.8383,3.79801,-0.411978,0.270017,21.7882,-0.121247,1.52823,0.0987566,-0.561618,-4.83877,0.148627,-0.942146,0.0119865,-0.100559,-0.0386887,0.0817838,-0.00361729,0.0818641,0,0,0,0,0,0,0,0,0,0.0733218,0.00833037,-0.00337952,0.920286,-0.0102912,-0.00158026,-0.00298297,-0.120451,-0.757428,-0.924792,0.121403,-0.0016332
318,0.000344161,-0.111882,-0.0314595,0.326014,0.0538852,0.0538852,0.0538852,0.0538852,0.0538852,0.0538852,0.0538852,0.0538852,0.0538852,0.494836,-0.84156,0.0461148,0.97735,-0.111882,-0.0314595,0.326014,0.123819,-0.00829032,-0.0242844,0.0149323,-0.00265408,0.0577998,0.0538852,7.16533,-12.3019,0.862367,-0.806934,4.07367,-0.718517,-1.40644,8.34012,0.166058,1.50594,0.0641178,0.158948,-0.667543,0.069888,0.921479,0.123819,-0.00829032,-0.0242844,0.0149323,-0.00265408,0.0577998,0,0,0,0,0,0,0,0,0,0.0346276,0.027679,0.0047627,0.764189,0.00324741,0.00377807,-0.00786177,0.0912543,-0.401491,-0.771617,-0.0906397,-0.00812828
319,0.000344161,0.360598,0.210592,1.28915,0.0250654,0.0250654,0.0250654,0.0250654,0.0250654,0.0250654,0.0250654,0.0250654,0.0250654,0.814644,-0.675836,-0.0749346,1.06114,0.360598,0.210592,1.28915,0.11194,-0.0963701,-0.0564346,-0.0315877,0.0466909,0.0787796,0.0250654,-4.29951,22.4743,-1.63258,3.49728,-4.13324,-0.490936,-0.101968,-18.7016,0.372175,2.63474,-0.187642,-0.547757,-6.34261,-0.0895329,-0.639423,0.11194,-0.0963701,-0.0564346,-0.0315877,0.0466909,0.0787796,0,0,0,0,0,0,0,0,0,-0.0691581,-0.0164866,-0.00922081,0.919265,-0.0088827,-0.00806865,0.00615418,0.104833,-0.692325,-0.924738,-0.106242,0.00439747
320,0.000344161,-0.0837166,0.0843515,0.000722408,0.0305122,0.0305122,0.0305122,0.0305122,0.0305122,0.0305122,0.0305122,0.0305122,0.0305122,-0.572104,-0.477727,-0.0694878,0.748568,-0.0837166,0.0843515,0.000722408,0.0414331,-0.075475,0.0363922,-0.0553573,-0.0497586,0.00304604,0.0305122,-4.07448,0.636077,1.41203,6.0797,3.13255,-0.085275,0.133952,-3.68491,-0.569653,-1.96978,-0.164514,0.610085,-4.19427,-0.0124788,-0.744759,0.0414331,-0.075475,0.0363922,-0.0553573,-0.0497586,0.00304604,0,0,0,0,0,0,0,0,0,-0.00340916,-0.0147797,0.00801592,0.0421241,0.000432735,0.00534967,0.00226052,-0.0112721,-0.00381555,-0.0426129,0.00912936,0.0053384
321,0.000344161,-0.106233,0.0446704,-0.0139442,0.0446219,0.0446219,0.0446219,0.0446219,0.0446219,0.0446219,0.0446219,0.0446219,0.0446219,-0.444491,0.955378,0.0179939,1.05387,-0.106233,0.0446704,-0.0139442,-0.0240108,-0.000672296,0.000256538,0.0190407,-0.00329685,0.00459474,0.0446219,2.04629,4.28953,-0.0719488,-0.0164109,1.17559,1.39381,0.446259,-5.35889,-0.00323558,0.180933,0.0234544,-0.520379,-0.209193,0.00618454,0.0880642,-0.0240108,-0.000672296,0.000256538,0.0190407,-0.00329685,0.00459474,0,0,0,0,0,0,0,0,0,0.00126967,0.0077473,0.00052206,0.1059,-0.000905598,-0.00124827,-0.00228504,-0.0319052,-0.0100394,-0.0919591,0.0321068,-0.00231017
322,0.000344161,-0.0509642,-0.0101687,0.0745224,0.0823324,0.0823324,0.0823324,0.0823324,0.0823324,0.0823324,0.0823324,0.0823324,0.0823324,-0.603456,0.6806,-0.0176676,0.909773,-0.0509642,-0.0101687,0.0745224,0.0188731,-0.00992192,-0.0054512,-0.0064593,0.0122294,-0.00402701,0.0823324,-1.47778,-3.15096,-0.0782247,-0.708238,1.26564,0.192689,-0.151288,1.93629,-0.158979,0.20712,0.145091,-1.71532,0.511287,-0.0572711,1.79208,0.0188731,-0.00992192,-0.0054512,-0.0064593,0.0122294,-0.00402701,0,0,0,0,0,0,0,0,0,-0.00141756,-0.00534957,-0.000465814,0.0462378,-0.000334138,-0.000415653,0.00111778,0.000162049,-0.00301999,-0.0443654,0.00141115,0.00163849
323,0.000344161,-0.0271671,-0.0114785,0.0537352,0.0905502,0.0905502,0.0905502,0.0905502,0.0905502,0.0905502,0.0905502,0.0905502,0.0905502,-0.270487,-0.846619,-0.00944979,0.888829,-0.0271671,-0.0114785,0.0537352,0.0511698,-0.00189464,0.0219536,0.0154738,-0.0056603,0.0174527,0.0905502,-1.463,-2.15788,-0.0549523,-0.146934,0.637348,0.882566,-0.0740636,1.5477,0.0337281,0.285927,-0.103974,-0.199088,-0.127514,0.000932846,0.219416,0.0511698,-0.00189464,0.0219536,0.0154738,-0.0056603,0.0174527,0,0,0,0,0,0,0,0,0,-0.00244132,-0.00550812,0.000279773,0.1939,-0.000725308,-0.000848242,0.00179706,0.0238521,-0.0365604,-0.184855,-0.0249485,0.00164298
324,0.000344161,-0.00332892,-0.0205235,0.0109954,0.068999,0.068999,0.068999,0.068999,0.068999,0.068999,0.068999,0.068999,0.068999,-0.128616,-0.73955,-0.031001,0.75129,-0.00332892,-0.0205235,0.0109954,0.0170314,0.0420659,0.00437164,0.0391341,-0.0180723,0.024157,0.068999,-5.63979,-8.17422,0.258928,0.470254,10.0043,-0.228048,-6.09092,-1.82674,-0.0223281,-2.76929,0.323982,5.52268,2.31956,-0.0236073,0.557248,0.0170314,0.0420659,0.00437164,0.0391341,-0.0180723,0.024157,0,0,0,0,0,0,0,0,0,-0.00925464,-0.021646,0.00532546,0.281111,-0.000813099,-0.00231552,0.00655181,0.00737423,-0.0712159,-0.283348,-0.00431513,0.00647052
325,0.000344161,0.0136852,-0.0136357,0.126553,0.0300759,0.0300759,0.0300759,0.0300759,0.0300759,0.0300759,0.0300759,0.0300759,0.0300759,-0.206918,0.939737,0.0699241,0.964785,0.0136852,-0.0136357,0.126553,-0.0296817,0.0288641,-0.000520706,0.000627279,-0.015152,0.0153251,0.0300759,11.7767,15.6446,-0.503982,-1.01003,4.63435,0.728951,0.00488478,-20.2926,-0.0478818,1.49734,0.0265087,-0.166711,-0.473675,0.0173032,0.0352733,-0.0296817,0.0288641,-0.000520706,0.000627279,-0.015152,0.0153251,0,0,0,0,0,0,0,0,0,0.0156353,0.0451978,0.000212479,0.229038,-0.00345662,-0.00496366,-0.0137737,-0.0446802,-0.0472919,-0.221754,0.0447938,-0.0133743
326,0.000344161,0.0606289,0.0294172,0.0348902,0.0722643,0.0722643,0.0722643,0.0722643,0.0722643,0.0722643,0.0722643,0.0722643,0.0722643,-0.626716,0.77451,0.0277357,0.996699,0.0606289,0.0294172,0.0348902,-0.00179249,-0.00599794,0.0182836,0.00266755,0.00246251,-0.00387245,0.0722643,2.10495,6.69418,-0.0951986,0.487281,-1.57135,0.423609,-2.1577,-5.18347,0.206297,-1.09822,-0.035879,-1.52615,0.581518,0.0820173,3.64896,-0.00179249,-0.00599794,0.0182836,0.00266755,0.00246251,-0.00387245,0,0,0,0,0,0,0,0,0,0.0005216,0.00775779,-0.000190473,0.040138,-0.000475729,-0.000821493,-0.00171318,-0.00556543,-0.00178649,-0.0357191,0.00523127,-0.00236728
327,0.000344161,0.223151,0.0697452,0.497819,0.00661446,0.00661446,0.00661446,0.00661446,0.00661446,0.00661446,0.00661446,0.00661446,0.00661446,-0.263982,-0.993386,0.025698,1.02818,0.223151,0.0697452,0.497819,0.144075,-0.0384037,0.283875,0.0217708,-0.0162878,0.0264322,0.00661446,3.86887,5.48588,0.0121062,0.0197909,2.15902,1.60156,0.745577,-7.86805,5.45233e-05,-0.259845,-0.0189603,-1.41711,0.170309,0.00434324,0.173713,0.144075,-0.0384037,0.283875,0.0217708,-0.0162878,0.0264322,0,0,0,0,0,0,0,0,0,0.00448973,0.0153737,-0.00188882,0.199233,0.000809824,0.00162584,-0.00458189,0.0511482,-0.03216,-0.180379,-0.0515007,-0.00453714
328,0.000344161,-0.0528493,-0.0229784,0.29044,0.0572489,0.0572489,0.0572489,0.0572489,0.0572489,0.0572489,0.0572489,0.0572489,0.0572489,0.7044,-0.942751,0.0149759,1.17694,-0.0528493,-0.0229784,0.29044,0.0155126,-0.0206498,0.0101776,0.0434332,0.00435829,0.107091,0.0572489,1.51491,-4.34204,0.074717,-0.121055,1.22577,-1.08849,-1.97245,3.16912,-0.00146325,0.024234,-0.0639428,-0.0826179,0.119799,0.046632,1.76463,0.0155126,-0.0206498,0.0101776,0.0434332,0.00435829,0.107091,0,0,0,0,0,0,0,0,0,0.012297,0.00566042,0.000488773,0.859824,0.000728844,5.18987e-05,-0.00178182,0.119869,-0.563291,-0.870608,-0.120465,-0.00122305
329,0.000344161,0.0492611,-0.0495226,0.336734,0.0698632,0.0698632,0.0698632,0.0698632,0.0698632,0.0698632,0.0698632,0.0698632,0.0698632,0.770249,0.728854,-0.0301368,1.06086,0.0492611,-0.0495226,0.336734,0.0617159,-0.0730923,0.0211563,0.0292444,-0.0156059,0.0445191,0.0698632,-2.19124,10.3809,0.683491,-1.13854,-2.17966,-1.11438,-1.16793,-8.25054,0.0540412,-0.528771,0.269431,-0.986885,1.71684,-0.0428466,1.81808,0.0617159,-0.0730923,0.0211563,0.0292444,-0.0156059,0.0445191,0,0,0,0,0,0,0,0,0,-0.0279387,-0.0082885,0.0036112,0.898852,0.00243965,0.00249279,0.00277554,-0.1,-0.647645,-0.909784,0.102538,0.00236748
330,0.000344161,-1.01267,1.16844,1.84928,0.0129603,0.0129603,0.0129603,0.0129603,0.0129603,0.0129603,0.0129603,0.0129603,0.0129603,0.728627,0.379404,-0.0747113,0.824879,-1.01267,1.16844,1.84928,0.115875,-0.227926,0.243698,0.108532,-0.22582,-0.00588226,0.0129603,-1.3591,-32.4938,1.43988,12.0708,19.8389,0.331611,-5.71461,13.6676,-1.29399,12.0316,-0.694007,5.04936,-25.2709,-0.108016,-1.18403,0.115875,-0.227926,0.243698,0.108532,-0.22582,-0.00588226,0,0,0,0,0,0,0,0,0,-0.0723933,-0.0032824,0.022125,0.953226,0.00477864,-0.0100054,-0.00299352,-0.0662422,-0.638062,-0.947473,0.057044,0.00236426
331,0.000344161,0.175646,0.147486,0.530011,0.0260519,0.0260519,0.0260519,0.0260519,0.0260519,0.0260519,0.0260519,0.0260519,0.0260519,0.236504,-0.717439,-0.0537955,0.757328,0.175646,0.147486,0.530011,0.156489,0.0218102,0.0747032,-0.0301871,0.0011363,0.00365353,0.0260519,-12.8024,15.4158,-1.78445,-8.98822,-12.2538,-0.255984,4.75596,-3.33766,-0.59531,5.99314,0.217519,-5.96499,2.84759,-0.0553183,0.679024,0.156489,0.0218102,0.0747032,-0.0301871,0.0011363,0.00365353,0,0,0,0,0,0,0,0,0,-0.0324571,-0.0478566,-0.00965295,0.5941,-0.00287712,-0.00797342,0.0122452,0.0379226,-0.231649,-0.595913,-0.0357361,0.0151144
332,0.000344161,0.608343,-0.193338,1.08337,0.0156444,0.0156444,0.0156444,0.0156444,0.0156444,0.0156444,0.0156444,0.0156444,0.0156444,0.494108,-0.613112,-0.0625272,0.78991,0.608343,-0.193338,1.08337,0.23218,0.00229824,0.206879,0.0285381,0.0535755,0.0231082,0.0156444,-7.70088,4.71526,-3.84262,17.0031,-21.2095,0.703387,-9.79115,15.8859,-2.0967,-27.9722,0.568371,8.18026,11.1624,-0.0731678,0.527524,0.23218,0.00229824,0.206879,0.0285381,0.0535755,0.0231082,0,0,0,0,0,0,0,0,0,-0.0514182,-0.0262817,-0.0313667,0.811741,-0.00479891,-0.00703648,0.000721005,0.0590822,-0.417529,-0.802638,-0.0528627,0.0108115
333,0.000344161,-0.172036,-0.0518727,0.356394,0.0772799,0.0772799,0.0772799,0.0772799,0.0772799,0.0772799,0.0772799,0.0772799,0.0772799,0.883412,-0.320085,0.0227201,0.939887,-0.172036,-0.0518727,0.356394,0.0365755,-0.061126,0.0165482,0.0426206,0.088891,0.0860624,0.0772799,0.400766,-3.17443,0.493988,-0.650507,-0.750622,-0.73737,-6.02456,4.09709,-0.684501,-1.76118,-0.690139,2.61779,2.46356,0.115221,3.05037,0.0365755,-0.061126,0.0165482,0.0426206,0.088891,0.0860624,0,0,0,0,0,0,0,0,0,0.0215986,0.00219047,0.00329728,0.982358,0.000469385,0.00103134,-0.00320565,0.0692783,-0.791368,-0.989566,-0.0752908,0.00101017
334,0.000344161,-0.0422554,0.0473256,0.0744036,0.0334786,0.0334786,0.0334786,0.0334786,0.0334786,0.0334786,0.0334786,0.0334786,0.0334786,-0.45742,0.667679,0.0665214,0.812067,-0.0422554,0.0473256,0.0744036,0.0071162,-0.0442179,0.0342207,0.0454928,0.0138526,0.0104916,0.0334786,6.6414,11.271,0.778912,3.66623,-8.02486,0.151892,-0.0723706,-3.20388,-0.0841561,-0.506458,0.136549,-0.116766,-3.2071,0.00631762,0.114733,0.0071162,-0.0442179,0.0342207,0.0454928,0.0138526,0.0104916,0,0,0,0,0,0,0,0,0,0.00574208,0.0255964,0.00472013,0.0950031,-1.02166e-05,0.00262681,-0.00783946,0.00459281,-0.0131317,-0.093142,-0.0030888,-0.0075621
335,0.000344161,0.110634,-0.0710807,-0.00455022,0.0297512,0.0297512,0.0297512,0.0297512,0.0297512,0.0297512,0.0297512,0.0297512,0.0297512,-0.613635,-0.312688,-0.0702488,0.692284,0.110634,-0.0710807,-0.00455022,0.0327616,-0.0518573,0.0340691,0.00573722,-0.0444445,-0.00952631,0.0297512,-1.79179,6.03286,1.15736,3.39522,-3.28069,-0.140533,0.30779,-2.8628,-0.863967,-0.472741,-0.0909904,0.933812,-2.8514,-0.034997,-1.23705,0.0327616,-0.0518573,0.0340691,0.00573722,-0.0444445,-0.00952631,0,0,0,0,0,0,0,0,0,-0.00170875,-0.00572387,0.0067077,0.0172178,0.000278329,0.0043473,-0.00121986,-0.00884762,-0.0010949,-0.0182824,0.00749328,0.00284867
336,0.000344161,0.0856872,-0.0570939,0.279601,0.076219,0.076219,0.076219,0.076219,0.076219,0.076219,0.076219,0.076219,0.076219,0.868343,-0.293439,-0.023781,0.916892,0.0856872,-0.0570939,0.279601,0.0955414,0.0644047,0.016098,-0.0373476,0.0429554,0.102392,0.076219,-0.471376,2.45555,-0.635342,-0.612475,1.46984,-0.521764,-7.09778,-4.01108,1.01204,3.26127,-0.379927,3.68497,-2.59171,-0.0444522,3.13321,0.0955414,0.0644047,0.016098,-0.0373476,0.0429554,0.102392,0,0,0,0,0,0,0,0,0,-0.0241836,-0.00263702,-0.00534838,0.986,-0.00262888,-0.00036099,0.00411563,0.0646729,-0.778369,-0.991056,-0.0680426,-0.000468149
337,0.000344161,-0.157698,-0.0495905,0.050725,0.0676402,0.0676402,0.0676402,0.0676402,0.0676402,0.0676402,0.0676402,0.0676402,0.0676402,-0.163133,0.711513,0.00728618,0.730011,-0.157698,-0.0495905,0.050725,0.0266922,-0.00302055,0.0591602,0.00215913,0.0157626,0.0134813,0.0676402,1.19452,2.10271,0.128739,0.62262,-3.23243,-0.64505,-10.4121,1.28742,0.0164835,-1.43794,-0.457349,9.6148,0.864911,0.00252057,0.746563,0.0266922,-0.00302055,0.0591602,0.00215913,0.0157626,0.0134813,0,0,0,0,0,0,0,0,0,0.00120118,0.00465699,0.00163188,0.252808,-0.000354597,-0.000374695,-0.00135585,0.000742814,-0.0622773,-0.258667,-0.00515868,-0.00136905
338,0.000344161,-0.0603653,-0.0501908,0.0530466,0.0994341,0.0994341,0.0994341,0.0994341,0.0994341,0.0994341,0.0994341,0.0994341,0.0994341,-0.344871,0.663301,-0.000565883,0.747599,-0.0603653,-0.0501908,0.0530466,0.0267524,-0.00920397,-0.00948906,0.0149939,-0.0168267,0.00424136,0.0994341,-0.100486,-0.27496,-0.0235576,-0.148488,0.320486,0.0424247,-4.66879,0.0148394,-0.00460403,0.170632,0.0369049,4.35096,0.0280473,0.00212931,0.264789,0.0267524,-0.00920397,-0.00948906,0.0149939,-0.0168267,0.00424136,0,0,0,0,0,0,0,0,0,-0.000703841,-0.000302929,-0.000280465,0.142931,-0.00035564,-4.71502e-05,0.000117687,0.0100791,-0.0259764,-0.142601,-0.00987835,9.75913e-05
339,0.000344161,0.0406294,-0.0340372,0.0884573,0.0948315,0.0948315,0.0948315,0.0948315,0.0948315,0.0948315,0.0948315,0.0948315,0.0948315,0.24005,0.8174,0.00516847,0.851935,0.0406294,-0.0340372,0.0884573,-0.000841603,-0.0179373,0.0391388,-0.00814134,-0.00523138,0.0125228,0.0948315,1.03853,-0.716274,-0.109291,-0.0945049,0.341723,-0.366839,-2.41912,0.333922,0.0471094,-0.343204,-0.455358,1.22319,0.471746,0.0173555,1.10747,-0.000841603,-0.0179373,0.0391388,-0.00814134,-0.00523138,0.0125228,0,0,0,0,0,0,0,0,0,0.00230042,0.00391165,-0.000430343,0.585429,-0.00070619,-0.000841942,-0.00108193,-0.0584568,-0.229964,-0.588706,0.0538509,-0.00112737
340,0.000344161,0.0476258,-0.0135005,0.0364941,0.0920486,0.0920486,0.0920486,0.0920486,0.0920486,0.0920486,0.0920486,0.0920486,0.0920486,-0.14202,-0.856651,-0.00795138,0.86838,0.0476258,-0.0135005,0.0364941,0.0613816,-9.20445e-05,0.00799561,0.0199482,-0.00701284,0.0295591,0.0920486,-1.46515,-1.72431,-0.077586,-0.23296,0.425946,0.833949,-1.43053,1.25074,0.00772996,0.0473396,0.0417915,1.02583,0.199121,-0.000914916,0.368213,0.0613816,-9.20445e-05,0.00799561,0.0199482,-0.00701284,0.0295591,0,0,0,0,0,0,0,0,0,-0.00280291,-0.00546408,0.000294532,0.277152,-0.000824505,-0.00107131,0.00169313,0.0326083,-0.0652352,-0.268733,-0.0322605,0.00169796
341,0.000344161,0.16549,-0.0445757,0.241636,0.0542754,0.0542754,0.0542754,0.0542754,0.0542754,0.0542754,0.0542754,0.0542754,0.0542754,0.471379,0.672694,-0.0457246,0.822682,0.16549,-0.0445757,0.241636,0.0501016,-0.0116889,0.0914459,-0.0250902,-0.0231462,-0.0200679,0.0542754,-6.96609,13.3263,2.03409,-6.17063,-13.4683,-0.0871294,-7.00644,-0.0234098,-0.764068,9.80618,-0.260907,5.67434,-3.59097,-0.0455499,1.09047,0.0501016,-0.0116889,0.0914459,-0.0250902,-0.0231462,-0.0200679,0,0,0,0,0,0,0,0,0,-0.0365461,-0.0256137,0.0150582,0.780771,0.00226629,0.00516576,0.00502048,-0.0595239,-0.397229,-0.780727,0.0566833,0.00863818
342,0.000344161,0.122754,0.0515471,0.157804,0.00408421,0.00408421,0.00408421,0.00408421,0.00408421,0.00408421,0.00408421,0.00408421,0.00408421,-0.57266,-0.0948963,0.0113207,0.58058,0.122754,0.0515471,0.157804,0.0326869,-0.00115116,-0.0158519,0.0342976,-0.0966639,-0.0291762,0.00408421,0.00207281,-0.422686,-0.0115325,0.730881,0.28992,-0.0365364,2.6559,0.0100112,0.0888501,-0.548174,0.222503,-2.73083,-0.234254,0.0112127,-0.0828743,0.0326869,-0.00115116,-0.0158519,0.0342976,-0.0966639,-0.0291762,0,0,0,0,0,0,0,0,0,-0.000511341,1.23249e-05,-0.000244569,0.00291338,-0.000384847,0.000117732,0.000454265,-0.00228283,-3.42056e-05,-0.00343726,0.00354122,-0.000251291
343,0.000344161,-0.071198,-0.0291806,0.0445709,0.0950678,0.0950678,0.0950678,0.0950678,0.0950678,0.0950678,0.0950678,0.0950678,0.0950678,-0.415233,-0.768477,0.00493222,0.873499,-0.071198,-0.0291806,0.0445709,0.0420138,-0.00795064,0.0348577,0.0149467,-0.0101537,0.00881749,0.0950678,0.546025,1.24265,-0.0174516,-0.16583,-0.480966,0.586607,0.684651,-0.690487,-0.00929093,0.0488631,-0.180419,-0.816226,0.146148,0.00530184,0.0870042,0.0420138,-0.00795064,0.0348577,0.0149467,-0.0101537,0.00881749,0,0,0,0,0,0,0,0,0,-1.7263e-05,0.00223887,9.01272e-05,0.117599,-0.000398913,-0.00034415,-0.000673045,0.00776983,-0.016653,-0.111384,-0.00967555,-0.000630727
344,0.000344161,0.00398254,-0.012913,0.440982,0.0426829,0.0426829,0.0426829,0.0426829,0.0426829,0.0426829,0.0426829,0.0426829,0.0426829,0.709626,0.919462,0.0573171,1.16287,0.00398254,-0.012913,0.440982,0.0874713,-0.0154257,0.0522308,0.0351528,-0.0262318,0.0365088,0.0426829,5.40167,-18.5497,-0.46466,0.955668,5.16101,-0.791062,-1.05852,13.3847,0.0122811,-0.259476,0.0660264,-0.106139,-0.683279,0.102444,0.72368,0.0874713,-0.0154257,0.0522308,0.0351528,-0.0262318,0.0365088,0,0,0,0,0,0,0,0,0,0.0487678,0.020897,-0.00204433,0.867328,-0.00710962,-0.00275652,-0.00631151,-0.114693,-0.573073,-0.874716,0.115091,-0.00585392
345,0.000344161,-3.46012,-0.420963,5.43199,0.000275353,0.000275353,0.000275353,0.000275353,0.000275353,0.000275353,0.000275353,0.000275353,0.000275353,0.539404,0.998249,-0.0997247,1.13904,-3.46012,-0.420963,5.43199,-0.825437,0.141173,-0.0379181,0.094743,0.120937,0.167961,0.000275353,-13.7469,27.2003,0.0239006,-0.0535936,-10.4461,-0.0125661,-0.0505222,-13.2942,-5.39422e-05,-0.583262,0.0069381,-1.28757,1.05782,-0.0117188,-4.09389,-0.825437,0.141173,-0.0379181,0.094743,0.120937,0.167961,0,0,0,0,0,0,0,0,0,-0.0791736,-0.0563371,-0.00231594,0.786816,0.0113456,0.00396668,0.0169982,-0.117967,-0.422423,-0.787321,0.119246,0.017306
346,0.000344161,0.0951452,-0.00724471,0.242105,0.0595119,0.0595119,0.0595119,0.0595119,0.0595119,0.0595119,0.0595119,0.0595119,0.0595119,0.349568,0.897837,-0.0404881,0.964338,0.0951452,-0.00724471,0.242105,-0.0241587,-0.0311987,-0.00424957,0.00703442,0.00484562,0.0173278,0.0595119,-7.79032,7.80918,0.624284,-0.383776,-4.34103,-0.396212,-2.46826,-3.56329,-0.124085,2.16993,-0.164703,1.38598,-1.77891,-0.0298463,0.84017,-0.0241587,-0.0311987,-0.00424957,0.00703442,0.00484562,0.0173278,0,0,0,0,0,0,0,0,0,-0.0275957,-0.0299062,0.00256877,0.663347,0.0030516,0.00336208,0.00858096,-0.0858134,-0.293444,-0.667352,0.0842148,0.00910362
347,0.000344161,-0.0716445,-0.00452566,0.120356,0.0423273,0.0423273,0.0423273,0.0423273,0.0423273,0.0423273,0.0423273,0.0423273,0.0423273,-0.475661,-0.642968,0.0576727,0.801865,-0.0716445,-0.00452566,0.120356,0.029892,0.0248906,0.0235167,0.0188596,-0.0197761,0.0107479,0.0423273,5.41611,8.69222,-0.784707,-3.77229,-6.83411,0.126632,-0.109466,-1.78646,0.0216254,0.9353,-0.170879,-0.0334279,2.84152,0.00870283,0.022538,0.029892,0.0248906,0.0235167,0.0188596,-0.0197761,0.0107479,0,0,0,0,0,0,0,0,0,0.00439193,0.020877,-0.00454787,0.0858847,-0.000796432,-0.0030503,-0.00615057,-0.00639634,-0.0111756,-0.0843832,0.00448979,-0.00625575
348,0.000344161,-0.00172901,0.0113045,0.0845458,0.0515552,0.0515552,0.0515552,0.0515552,0.0515552,0.0515552,0.0515552,0.0515552,0.0515552,-0.308139,0.918037,0.0484448,0.969582,-0.00172901,0.0113045,0.0845458,0.0198413,0.0146015,-0.00637627,0.000115275,-0.000286579,-0.00403428,0.0515552,6.98039,11.3889,-0.300806,-0.405964,0.482297,0.945038,0.356665,-11.8695,-0.0517453,1.21148,0.0596193,-0.550557,-0.816816,0.0118259,0.109346,0.0198413,0.0146015,-0.00637627,0.000115275,-0.000286579,-0.00403428,0,0,0,0,0,0,0,0,0,0.00772533,0.0269745,-0.000207849,0.171306,-0.00199766,-0.00265419,-0.00828475,-0.0343008,-0.028585,-0.161919,0.0348942,-0.00798764
349,0.000344161,-0.94721,0.446742,4.41681,0.00136824,0.00136824,0.00136824,0.00136824,0.00136824,0.00136824,0.00136824,0.00136824,0.00136824,-0.215883,0.786402,0.0986318,0.821438,-0.94721,0.446742,4.41681,0.798369,0.0994616,-0.0351715,0.13062,0.0198718,0.126149,0.00136824,15.6533,23.9593,-0.150072,-1.48142,-12.3031,0.0100493,-0.0456733,-10.7089,-0.653799,2.42206,0.00203107,0.0326364,-1.38738,0.00937287,-4.40377,0.798369,0.0994616,-0.0351715,0.13062,0.0198718,0.126149,0,0,0,0,0,0,0,0,0,0.021682,0.0637229,0.00225169,0.222707,-0.00159503,-0.0027578,-0.0211513,-0.0124575,-0.0501953,-0.222958,0.0126765,-0.0178578
350,0.000344161,0.146589,0.181179,1.23747,0.0290761,0.0290761,0.0290761,0.0290761,0.0290761,0.0290761,0.0290761,0.0290761,0.0290761,0.776844,-0.487412,-0.0709239,0.91983,0.146589,0.181179,1.23747,0.0427931,0.0191229,0.00733185,0.0756325,-0.0141869,0.0646069,0.0290761,-3.68685,9.64506,-2.16723,2.46988,0.261439,-0.3313,-2.32056,-10.0531,0.549028,0.924838,-0.148947,1.56393,-3.5759,-0.0994465,-0.480841,0.0427931,0.0191229,0.00733185,0.0756325,-0.0141869,0.0646069,0,0,0,0,0,0,0,0,0,-0.0669799,-0.0146961,-0.0138835,0.937742,-0.00690229,-0.00759752,0.00664741,0.0815108,-0.675071,-0.940981,-0.0831421,0.00334992
351,0.000344161,-0.00940824,0.0247149,0.148966,0.0747125,0.0747125,0.0747125,0.0747125,0.0747125,0.0747125,0.0747125,0.0747125,0.0747125,0.10652,0.877881,0.0252875,0.884682,-0.00940824,0.0247149,0.148966,0.0203491,0.0121841,0.0570908,0.00451857,0.00453711,0.0219166,0.0747125,5.36898,0.414614,-0.394136,-0.520176,0.888965,0.263265,-3.36339,-1.29417,0.106486,-1.63126,-0.329819,2.50192,2.12672,0.0236126,0.712499,0.0203491,0.0121841,0.0570908,0.00451857,0.00453711,0.0219166,0,0,0,0,0,0,0,0,0,0.0112383,0.0205476,-0.00111502,0.471606,-0.00183828,-0.0027045,-0.00584404,-0.0578489,-0.156193,-0.468403,0.0545961,-0.00617142
352,0.000344161,-0.0309181,-0.0277491,0.45048,0.0366219,0.0366219,0.0366219,0.0366219,0.0366219,0.0366219,0.0366219,0.0366219,0.0366219,0.356403,0.856969,0.0633781,0.930288,-0.0309181,-0.0277491,0.45048,-0.024996,0.017876,0.00758362,-0.0165987,-0.0153151,0.021534,0.0366219,12.0954,-13.3456,-1.24208,0.369912,5.73681,-0.350184,-1.49448,7.63974,0.328881,-3.74255,-0.148238,0.778935,3.40039,0.0690994,0.265061,-0.024996,0.017876,0.00758362,-0.0165987,-0.0153151,0.021534,0,0,0,0,0,0,0,0,0,0.0418155,0.0459598,-0.00577671,0.673,-0.00539437,-0.00646534,-0.0128309,-0.0776394,-0.301551,-0.676426,0.0760038,-0.0139391
353,0.000344161,-0.0577558,0.0309171,0.140252,0.0313518,0.0313518,0.0313518,0.0313518,0.0313518,0.0313518,0.0313518,0.0313518,0.0313518,0.183975,-0.968648,-0.010971,0.986026,-0.0577558,0.0309171,0.140252,0.0607344,-0.00437915,-0.0368996,0.00107491,0.00885201,0.0506865,0.0313518,-2.3313,0.726496,-0.0690298,0.0289962,-2.26692,0.750044,-4.69644,1.59818,-0.00566803,-0.330816,0.0867193,3.82299,0.270903,-0.00634009,0.733202,0.0607344,-0.00437915,-0.0368996,0.00107491,0.00885201,0.0506865,0,0,0,0,0,0,0,0,0,-0.00645255,-0.0087788,0.00100569,0.530967,-0.00174017,-0.00173978,0.00255104,0.0892116,-0.186866,-0.523836,-0.0882559,0.00279574
354,0.000344161,-0.0517852,-0.0026406,0.0455611,0.0838592,0.0838592,0.0838592,0.0838592,0.0838592,0.0838592,0.0838592,0.0838592,0.0838592,-0.518571,0.744763,-0.0161409,0.907661,-0.0517852,-0.0026406,0.0455611,0.0315319,-0.00696078,-0.00465775,-0.0124158,0.00562972,-0.00142819,0.0838592,-1.62177,-2.39028,-0.0352059,-0.380725,1.31169,0.418238,1.05556,1.13038,-0.0350509,0.0960526,0.137509,-1.15548,0.287313,-0.00424344,0.0543548,0.0315319,-0.00696078,-0.00465775,-0.0124158,0.00562972,-0.00142819,0,0,0,0,0,0,0,0,0,-0.00183823,-0.006055,-0.000363447,0.0758086,-0.000267277,-5.822e-05,0.00165888,-0.00445343,-0.00770166,-0.0716728,0.00588482,0.00186785
355,0.000344161,0.135252,0.172883,4.90987,0.00575281,0.00575281,0.00575281,0.00575281,0.00575281,0.00575281,0.00575281,0.00575281,0.00575281,0.994247,0.955154,0.067625,1.38037,0.135252,0.172883,4.90987,-0.0116781,0.156978,0.204811,-0.277785,0.174623,0.294559,0.00575281,-0.00073792,-0.813791,0.00029546,1.02956,0.0625462,-0.965971,0.80925,0.615993,-0.0549893,1.88401,0.145399,-1.4905,-3.08645,-0.680736,-4.22862,-0.0116781,0.156978,0.204811,-0.277785,0.174623,0.294559,0,0,0,0,0,0,0,0,0,0.0611136,0.000781805,-0.00200654,0.921724,-0.00868949,0.00357927,-0.000819985,-0.120229,-0.828008,-0.929336,0.12343,-0.001087
356,0.000344161,0.00995398,-0.0228399,0.291324,0.0636525,0.0636525,0.0636525,0.0636525,0.0636525,0.0636525,0.0636525,0.0636525,0.0636525,0.55274,-0.776162,-0.0363475,0.953557,0.00995398,-0.0228399,0.291324,0.108543,0.00306749,-0.0303879,0.0296229,-0.0169048,0.0525053,0.0636525,-5.16962,10.3471,-0.890758,0.985268,-3.53359,-0.863028,-1.2073,-6.82341,-0.16556,-1.11022,-0.0125612,-0.247682,0.147796,-0.0357427,1.16366,0.108543,0.00306749,-0.0303879,0.0296229,-0.0169048,0.0525053,0,0,0,0,0,0,0,0,0,-0.0297461,-0.0193282,-0.004488,0.803809,-0.00414521,-0.00438891,0.00529753,0.0866265,-0.453125,-0.812743,-0.0869211,0.00606103
357,0.000344161,-0.159796,0.000533938,0.340465,0.0140085,0.0140085,0.0140085,0.0140085,0.0140085,0.0140085,0.0140085,0.0140085,0.0140085,-0.273976,-0.866325,0.0859915,0.912675,-0.159796,0.000533938,0.340465,-0.0472353,-0.150159,-0.0432949,0.0466354,0.00176668,0.0563278,0.0140085,13.1447,20.5781,0.619346,1.47849,-3.69819,0.25286,0.00704201,-16.7201,-0.264138,-3.36357,-0.0286415,-0.135192,1.88455,0.0147303,-0.212315,-0.0472353,-0.150159,-0.0432949,0.0466354,0.00176668,0.0563278,0,0,0,0,0,0,0,0,0,0.015698,0.0505439,0.00141958,0.185151,0.00187863,0.0032723,-0.016031,0.0280308,-0.0360156,-0.183055,-0.0282996,-0.0145882
358,0.000344161,-0.00907385,0.0153265,0.123671,0.0791542,0.0791542,0.0791542,0.0791542,0.0791542,0.0791542,0.0791542,0.0791542,0.0791542,0.106415,0.883834,0.0208458,0.890462,-0.00907385,0.0153265,0.123671,0.0205024,0.00506465,0.0535431,0.00639457,0.00492191,0.0218748,0.0791542,4.40648,0.357229,-0.316975,-0.404765,0.887827,0.304197,-3.48837,-1.23598,0.0796552,-1.303,-0.32294,2.63411,1.69243,0.0199572,0.73059,0.0205024,0.00506465,0.0535431,0.00639457,0.00492191,0.0218748,0,0,0,0,0,0,0,0,0,0.00913631,0.0168793,-0.000869801,0.471322,-0.00160957,-0.0022493,-0.00482537,-0.059293,-0.155789,-0.467745,0.0561129,-0.00504646
359,0.000344161,0.0828066,-0.012175,0.285691,0.0749007,0.0749007,0.0749007,0.0749007,0.0749007,0.0749007,0.0749007,0.0749007,0.0749007,0.748236,-0.808867,-0.0250993,1.10216,0.0828066,-0.012175,0.285691,0.0655454,-0.0030112,0.0216446,0.0268991,0.0170727,0.0866864,0.0749007,-2.06056,8.88882,-0.432871,0.657019,-1.98279,-1.17902,-1.24002,-6.98884,-0.0106157,0.0621738,-0.163397,-0.879372,-0.707018,-0.0308173,1.8337,0.0655454,-0.0030112,0.0216446,0.0268991,0.0170727,0.0866864,0,0,0,0,0,0,0,0,0,-0.0227095,-0.0077564,-0.00197783,0.882811,-0.00382255,-0.00238099,0.00230011,0.108611,-0.617369,-0.894384,-0.110074,0.00249804
360,0.000344161,-0.0541407,-0.00711441,0.237632,0.0986434,0.0986434,0.0986434,0.0986434,0.0986434,0.0986434,0.0986434,0.0986434,0.0986434,0.524448,0.70179,-0.00135664,0.876103,-0.0541407,-0.00711441,0.237632,0.0081528,-0.045251,0.0443344,0.0175386,-0.0143971,0.0303167,0.0986434,-0.249761,0.335316,0.0898814,0.119961,-0.21556,-0.709836,-3.44726,-0.0656155,-0.00928121,0.175054,-0.0722093,1.72737,-0.287901,0.0161008,1.48225,0.0081528,-0.045251,0.0443344,0.0175386,-0.0143971,0.0303167,0,0,0,0,0,0,0,0,0,-0.00192507,-0.00099235,0.000608079,0.801955,-0.000402654,-0.000161775,0.00025698,-0.0701718,-0.43739,-0.80861,0.0693058,0.00044778
361,0.000344161,-0.449686,-0.244852,2.7985,0.00698069,0.00698069,0.00698069,0.00698069,0.00698069,0.00698069,0.00698069,0.00698069,0.00698069,0.712273,0.952623,-0.0930193,1.1931,-0.449686,-0.244852,2.7985,-0.506577,0.0674168,-0.103241,0.0281465,0.0328569,0.198912,0.00698069,-8.29893,28.3188,0.38169,-1.18397,-8.30804,-0.127421,-0.112528,-19.561,0.045821,-0.516998,0.0169107,0.140829,1.94582,-0.0428984,-2.8268,-0.506577,0.0674168,-0.103241,0.0281465,0.0328569,0.198912,0,0,0,0,0,0,0,0,0,-0.0814349,-0.0341327,0.00204617,0.871126,0.0104731,0.0024449,0.0102647,-0.118398,-0.571832,-0.873433,0.118895,0.0106749
362,0.000344161,0.201041,0.0697957,0.472327,0.0317027,0.0317027,0.0317027,0.0317027,0.0317027,0.0317027,0.0317027,0.0317027,0.0317027,0.433913,-0.663296,0.00252697,0.792621,0.201041,0.0697957,0.472327,0.0134918,-0.0155025,-0.00396729,0.0170614,-0.013854,0.0722497,0.0317027,0.345814,-1.61327,0.11908,-0.835096,1.55237,0.525469,-9.84902,-0.140138,0.059763,0.791439,0.563014,7.66332,-0.0261396,0.0229837,1.71338,0.0134918,-0.0155025,-0.00396729,0.0170614,-0.013854,0.0722497,0,0,0,0,0,0,0,0,0,0.0014177,0.00118342,0.00136558,0.761557,-0.000781471,-0.000329804,-0.00022899,0.0578024,-0.367572,-0.756342,-0.0523108,-0.000136945
363,0.000344161,0.186861,-0.389332,0.232855,0.00550587,0.00550587,0.00550587,0.00550587,0.00550587,0.00550587,0.00550587,0.00550587,0.00550587,-0.583328,-0.359195,-0.0944941,0.691536,0.186861,-0.389332,0.232855,-0.0865479,0.160757,0.0403423,-0.163114,-0.0527825,0.158224,0.00550587,-2.976,9.3479,1.77431,6.10412,-2.95728,0.00782073,-0.410934,-6.57748,-0.929029,-3.7261,-0.0195712,0.333544,-1.98869,-0.00324969,-0.155465,-0.0865479,0.160757,0.0403423,-0.163114,-0.0527825,0.158224,0,0,0,0,0,0,0,0,0,-0.00291397,-0.0106977,0.0119033,0.0272162,0.000759086,0.00744738,-0.000845665,-0.0120479,-0.00230641,-0.0267346,0.0113243,0.00538993
364,0.000344161,0.0288566,0.00140369,0.135026,0.0728356,0.0728356,0.0728356,0.0728356,0.0728356,0.0728356,0.0728356,0.0728356,0.0728356,0.722398,-0.490296,-0.0254348,0.873439,0.0288566,0.00140369,0.135026,0.120145,0.0539262,-0.00505829,0.0426599,-0.0132713,0.0646269,0.0728356,-1.51045,0.129734,-0.909333,0.907692,0.853461,-0.242475,-11.0868,-1.01205,-0.148524,-2.82923,0.18608,8.79805,1.92013,-0.0428824,2.15371,0.120145,0.0539262,-0.00505829,0.0426599,-0.0132713,0.0646269,0,0,0,0,0,0,0,0,0,-0.024081,-0.00525028,-0.00655033,0.923603,-0.00306881,-0.00200373,0.00117194,0.0772014,-0.623879,-0.926078,-0.0754733,0.00180999
365,0.000344161,0.0841985,-0.112953,0.00998151,0.0306281,0.0306281,0.0306281,0.0306281,0.0306281,0.0306281,0.0306281,0.0306281,0.0306281,-0.52892,0.528532,-0.0693719,0.750942,0.0841985,-0.112953,0.00998151,-0.0052765,0.0124745,0.0244794,-0.0495058,0.064242,0.0136955,0.0306281,-4.86007,-2.77668,-1.46245,-6.13306,5.33986,-0.0408157,-0.62919,-2.64738,-0.367337,2.72132,0.131881,0.748186,3.52469,-0.0102746,-0.128977,-0.0052765,0.0124745,0.0244794,-0.0495058,0.064242,0.0136955,0,0,0,0,0,0,0,0,0,-0.00460634,-0.0182359,-0.00889911,0.0587295,-0.00125178,-0.00560063,0.00400668,0.0129051,-0.00661898,-0.0588929,-0.0109439,0.00610799
366,0.000344161,-0.27872,0.123612,0.154695,0.00903319,0.00903319,0.00903319,0.00903319,0.00903319,0.00903319,0.00903319,0.00903319,0.00903319,-0.617657,0.570987,0.0909668,0.84605,-0.27872,0.123612,0.154695,-0.185344,-0.0272329,-0.132838,0.228358,-0.0164784,-0.130401,0.00903319,6.76999,-3.38085,0.903644,7.22073,-6.32969,0.00345445,2.31027,9.98926,0.751279,-0.689405,0.0656594,-0.149225,-6.65493,0.0118811,-2.31574,-0.185344,-0.0272329,-0.132838,0.228358,-0.0164784,-0.130401,0,0,0,0,0,0,0,0,0,0.00287019,0.024332,0.00452915,0.0377232,0.000111898,0.00423497,-0.00369308,0.00328488,-0.00271048,-0.0390171,-0.00279307,-0.00918387
367,0.000344161,0.997458,-0.504954,2.70205,0.0176831,0.0176831,0.0176831,0.0176831,0.0176831,0.0176831,0.0176831,0.0176831,0.0176831,0.898772,0.249273,-0.0823169,0.936325,0.997458,-0.504954,2.70205,-0.0333218,0.135218,-0.0167923,0.380099,0.068718,-0.0743008,0.0176831,-1.25631,3.33929,1.57702,-1.1106,4.23602,-0.14233,-1.48203,-8.57278,3.40772,-8.46919,0.162185,0.890804,10.0847,-0.103828,-2.11083,-0.0333218,0.135218,-0.0167923,0.380099,0.068718,-0.0743008,0,0,0,0,0,0,0,0,0,-0.083313,-0.00912514,0.0139499,1.0012,0.00387101,0.00317248,0.0162621,-0.0582907,-0.81207,-1.00279,0.0605997,-0.00356764
368,0.000344161,-0.00496137,-0.0476464,0.545482,0.0622753,0.0622753,0.0622753,0.0622753,0.0622753,0.0622753,0.0622753,0.0622753,0.0622753,0.937725,0.178737,0.00581743,0.954625,-0.00496137,-0.0476464,0.545482,0.104376,-0.0411567,0.0393143,-0.094567,-0.0650668,0.0977582,0.0622753,0.030363,-0.707183,-0.0675156,-0.331278,-0.183865,-0.723352,-7.60949,0.896009,0.00737528,-0.0250262,1.02314,4.67924,0.403951,0.105863,2.38477,0.104376,-0.0411567,0.0393143,-0.094567,-0.0650668,0.0977582,0,0,0,0,0,0,0,0,0,0.00476572,0.000383887,-0.000711462,1.01165,-0.00102749,-0.000375262,-0.000725768,-0.0401983,-0.855538,-1.01849,0.049779,0.000728294
369,0.000344161,0.0310068,-0.043829,0.265555,0.0347252,0.0347252,0.0347252,0.0347252,0.0347252,0.0347252,0.0347252,0.0347252,0.0347252,-0.0170056,-0.720871,-0.0297994,0.721687,0.0310068,-0.043829,0.265555,0.0208638,0.0436438,0.0979309,0.0443555,0.00317603,0.0389349,0.0347252,-6.40081,-10.1815,0.537454,-1.21841,19.1435,-1.45763,-3.66208,-8.99294,-0.223121,-1.59133,0.53112,2.42517,2.85357,-0.0371672,0.971352,0.0208638,0.0436438,0.0979309,0.0443555,0.00317603,0.0389349,0,0,0,0,0,0,0,0,0,-0.0112919,-0.024334,0.00881602,0.362217,-0.000984984,-0.00300504,0.00667188,0.0113946,-0.107971,-0.375814,-0.00605163,0.00757455
370,0.000344161,-0.219063,-0.0710783,0.0889932,0.0627005,0.0627005,0.0627005,0.0627005,0.0627005,0.0627005,0.0627005,0.0627005,0.0627005,-0.283746,0.644747,0.0372995,0.705409,-0.219063,-0.0710783,0.0889932,0.0420938,-0.00936617,0.0672226,0.0169791,0.032362,0.0108451,0.0627005,4.50734,4.19164,1.0656,5.33416,-10.985,-0.697019,-13.4956,7.01238,0.106136,-9.78601,-0.443664,12.9828,4.52292,0.0184694,0.423772,0.0420938,-0.00936617,0.0672226,0.0169791,0.032362,0.0108451,0,0,0,0,0,0,0,0,0,0.00563141,0.0173219,0.0105373,0.168686,0.000171294,2.49945e-05,-0.00480965,0.014751,-0.0354874,-0.174984,-0.018864,-0.00527865
371,0.000344161,-0.0134783,0.0246808,0.286726,0.0716884,0.0716884,0.0716884,0.0716884,0.0716884,0.0716884,0.0716884,0.0716884,0.0716884,0.53859,0.745182,-0.0283116,0.919878,-0.0134783,0.0246808,0.286726,0.0358223,-0.0486575,0.0122223,0.0173746,0.0123839,0.0142901,0.0716884,-4.08357,7.99384,0.801168,-0.864668,-3.20657,-0.839985,-1.64023,-4.77379,-0.149918,1.18422,-0.00552116,0.0824878,-0.344229,-0.0220212,1.27102,0.0358223,-0.0486575,0.0122223,0.0173746,0.0123839,0.0142901,0,0,0,0,0,0,0,0,0,-0.0235273,-0.0154064,0.00468819,0.802167,0.00170326,0.00283691,0.00416961,-0.0777322,-0.445716,-0.810445,0.0778008,0.00479367
372,0.000344161,0.359949,-0.128036,1.75053,0.0101326,0.0101326,0.0101326,0.0101326,0.0101326,0.0101326,0.0101326,0.0101326,0.0101326,0.39707,0.836191,-0.0898674,0.93003,0.359949,-0.128036,1.75053,-0.25252,-0.0110908,0.0249252,0.0153017,0.00593948,0.0481801,0.0101326,-16.283,21.8417,1.87119,-0.911923,-8.15961,-0.146706,-0.382254,-14.042,-0.458947,4.6531,-0.0341301,0.140254,-3.61314,-0.0423759,-1.50853,-0.25252,-0.0110908,0.0249252,0.0153017,0.00593948,0.0481801,0,0,0,0,0,0,0,0,0,-0.0639893,-0.0630931,0.00981342,0.706742,0.00653856,0.00878758,0.0173665,-0.0767234,-0.331768,-0.707959,0.0764415,0.0196137
373,0.000344161,-0.237649,-0.00238943,0.41964,0.0263508,0.0263508,0.0263508,0.0263508,0.0263508,0.0263508,0.0263508,0.0263508,0.0263508,0.255427,-0.972488,0.0736492,1.00817,-0.237649,-0.00238943,0.41964,-0.00290394,0.0573965,-0.0311661,0.0357137,-0.000774384,0.0758514,0.0263508,15.1722,-7.90591,0.428033,-0.294132,15.6929,0.211602,-2.16945,-7.54931,0.0184561,1.27673,0.00783372,1.72201,-0.980206,0.0497356,0.0277984,-0.00290394,0.0573965,-0.0311661,0.0357137,-0.000774384,0.0758514,0,0,0,0,0,0,0,0,0,0.0426158,0.0581361,-0.00102909,0.584966,0.00629709,0.00588338,-0.0174396,0.0963003,-0.226686,-0.583161,-0.0962297,-0.0170825
374,0.000344161,-0.0397129,-0.0449767,0.0267955,0.0353556,0.0353556,0.0353556,0.0353556,0.0353556,0.0353556,0.0353556,0.0353556,0.0353556,-0.491221,0.821375,-0.0646444,0.959236,-0.0397129,-0.0449767,0.0267955,0.013772,-0.0365489,-0.00536442,-0.0574825,-0.0174767,0.0100141,0.0353556,-6.71553,-12.0137,0.243145,-1.10239,3.89145,0.417995,0.467467,8.16197,-0.0169607,0.0404898,0.0584028,-0.574419,1.10688,-0.00309591,0.0801559,0.013772,-0.0365489,-0.00536442,-0.0574825,-0.0174767,0.0100141,0,0,0,0,0,0,0,0,0,-0.00618366,-0.0256981,0.00046215,0.084456,0.000516301,0.00160382,0.00743849,-0.0134126,-0.00927386,-0.0803296,0.0138219,0.0078453
375,0.000344161,-0.0308083,0.0325651,0.232785,0.0306575,0.0306575,0.0306575,0.0306575,0.0306575,0.0306575,0.0306575,0.0306575,0.0306575,0.372607,-0.969343,-0.00623771,1.03851,-0.0308083,0.0325651,0.232785,0.0698322,-0.00906921,0.0222473,0.0241309,-0.0110788,0.0863613,0.0306575,-1.17277,1.35588,-0.0366985,-0.0172973,-1.20715,-0.0861693,-3.92199,-0.117926,0.000333846,-0.080969,0.0372058,2.62758,0.0657012,0.00187555,1.06163,0.0698322,-0.00906921,0.0222473,0.0241309,-0.0110788,0.0863613,0,0,0,0,0,0,0,0,0,-0.00482664,-0.00437212,0.00062784,0.675623,-0.00154484,-0.00108552,0.00126491,0.105515,-0.300301,-0.676262,-0.105254,0.00158377
376,0.000344161,-0.48188,0.00630856,1.32365,0.00234298,0.00234298,0.00234298,0.00234298,0.00234298,0.00234298,0.00234298,0.00234298,0.00234298,-0.434329,-0.810107,0.097657,0.924366,-0.48188,0.00630856,1.32365,-0.1264,-0.0113164,-0.00315857,0.255963,0.0196074,-0.00595903,0.00234298,11.1244,21.9442,0.24834,-0.183287,-5.99133,0.0378968,-0.0382359,-15.471,-0.342566,-2.53258,-0.00492746,-0.0225525,2.70956,0.00620298,-1.26287,-0.1264,-0.0113164,-0.00315857,0.255963,0.0196074,-0.00595903,0,0,0,0,0,0,0,0,0,0.00991686,0.0423995,0.000765838,0.103663,0.00092206,0.0016044,-0.0130233,0.0147077,-0.0147119,-0.103315,-0.0145609,-0.0125891
377,0.000344161,-0.145388,-0.685741,7.05825,0.00196669,0.00196669,0.00196669,0.00196669,0.00196669,0.00196669,0.00196669,0.00196669,0.00196669,0.804657,0.998033,0.0914909,1.28527,-0.145388,-0.685741,7.05825,-0.106252,0.0817997,-0.0515671,0.0844404,0.00988293,0.0242116,0.00196669,5.97459,-28.4971,-0.00193246,-0.00223809,5.07901,-0.210478,0.0428879,23.5634,0.000994787,0.723981,0.0206126,-4.69252,-0.036002,0.115827,-2.40862,-0.106252,0.0817997,-0.0515671,0.0844404,0.00988293,0.0242116,0,0,0,0,0,0,0,0,0,0.0810473,0.0223104,0.00091912,0.900298,-0.0119086,-0.000120448,-0.00660415,-0.124104,-0.648354,-0.902918,0.124409,-0.00633113
378,0.000344161,-0.131991,0.0226926,1.16874,0.0141799,0.0141799,0.0141799,0.0141799,0.0141799,0.0141799,0.0141799,0.0141799,0.0141799,0.550853,-0.685636,0.0858201,0.883686,-0.131991,0.0226926,1.16874,-0.0120044,-0.283036,-0.0384979,-0.0167049,-0.0442533,0.127534,0.0141799,11.4572,-24.1028,3.00194,-5.68121,11.4043,-0.202907,-0.996837,12.8304,0.689726,6.57199,0.012651,0.532714,-0.913472,0.095931,-0.704612,-0.0120044,-0.283036,-0.0384979,-0.0167049,-0.0442533,0.127534,0,0,0,0,0,0,0,0,0,0.0696735,0.0429855,0.0171843,0.820062,0.0053365,0.0100047,-0.0108753,0.0730332,-0.459282,-0.822476,-0.0733492,-0.0131231
379,0.000344161,-0.0290005,-0.0400943,0.27042,0.0351497,0.0351497,0.0351497,0.0351497,0.0351497,0.0351497,0.0351497,0.0351497,0.0351497,0.259339,0.96485,-0.0253971,0.999419,-0.0290005,-0.0400943,0.27042,-0.0682729,-0.034359,0.021656,0.00965863,-0.00499821,0.0046699,0.0351497,-5.15545,2.88685,0.165758,-0.132205,-4.61833,0.313477,-4.25353,1.76047,-0.0142879,0.745276,-0.0804643,3.18547,-0.572977,-0.019197,0.797645,-0.0682729,-0.034359,0.021656,0.00965863,-0.00499821,0.0046699,0,0,0,0,0,0,0,0,0,-0.0157863,-0.0200691,-0.00062556,0.592805,0.00196313,0.00193955,0.00602633,-0.0930177,-0.230696,-0.589454,0.0921631,0.00597684
380,0.000344161,0.162739,-0.226021,1.29957,0.0203724,0.0203724,0.0203724,0.0203724,0.0203724,0.0203724,0.0203724,0.0203724,0.0203724,0.678096,0.78223,-0.0796276,1.03829,0.162739,-0.226021,1.29957,0.0330093,-0.0292581,0.0157013,0.024116,0.0162239,0.0912852,0.0203724,-8.1818,24.7313,1.55283,-2.50405,-6.1435,-0.42086,-0.236983,-18.7506,-0.075216,0.376134,0.063279,-0.343339,2.35393,-0.0668462,-0.719244,0.0330093,-0.0292581,0.0157013,0.024116,0.0162239,0.0912852,0,0,0,0,0,0,0,0,0,-0.0696179,-0.0313107,0.00825529,0.867678,0.00718298,0.00698042,0.00917771,-0.0973298,-0.560405,-0.87173,0.0981249,0.0095554
381,0.000344161,-0.0217614,0.0118693,0.946391,0.030307,0.030307,0.030307,0.030307,0.030307,0.030307,0.030307,0.030307,0.030307,0.566396,0.581823,0.012948,0.81209,-0.0217614,0.0118693,0.946391,0.00933309,-0.0254528,-0.0267029,0.0300611,0.0640063,0.0485619,0.030307,1.12576,-0.409279,-0.600848,3.59202,2.79064,0.727609,-19.1198,-2.3596,0.371554,-5.27356,-0.817831,16.4328,1.66966,0.0313212,1.74062,0.00933309,-0.0254528,-0.0267029,0.0300611,0.0640063,0.0485619,0,0,0,0,0,0,0,0,0,0.0102037,0.00381019,-0.00500975,0.857054,-0.00136604,-0.00125326,0.000142771,-0.0655397,-0.479803,-0.850045,0.0580015,-0.00146589
382,0.000344161,-0.818489,0.0254898,1.15008,0.00124652,0.00124652,0.00124652,0.00124652,0.00124652,0.00124652,0.00124652,0.00124652,0.00124652,-0.243351,-0.998753,0.0951697,1.03237,-0.818489,0.0254898,1.15008,-0.0762599,0.140691,0.19137,0.171993,-0.0264292,0.133858,0.00124652,15.3938,19.5893,0.015384,-0.0179238,13.1764,0.141,0.0453754,-31.9472,0.00226557,-0.388658,-0.00367805,-0.675124,0.381092,0.00500827,-0.520332,-0.0762599,0.140691,0.19137,0.171993,-0.0264292,0.133858,0,0,0,0,0,0,0,0,0,0.0191387,0.0585522,-0.00596377,0.196762,0.00461466,0.00752452,-0.017164,0.0536347,-0.0364912,-0.193438,-0.0539358,-0.017341
383,0.000344161,-0.135196,0.0847762,0.550915,0.0784981,0.0784981,0.0784981,0.0784981,0.0784981,0.0784981,0.0784981,0.0784981,0.0784981,0.921502,0.0148452,0.0200747,0.92184,-0.135196,0.0847762,0.550915,0.0856036,-0.0335095,-0.0164337,-0.0176604,0.00575042,0.103783,0.0784981,0.0428579,-0.148216,-0.0418089,0.0310226,-1.64343,-0.288879,-7.60742,1.92684,-0.96593,0.0495758,0.0585786,4.09732,-0.165375,0.150873,2.95919,0.0856036,-0.0335095,-0.0164337,-0.0176604,0.00575042,0.103783,0,0,0,0,0,0,0,0,0,0.0194902,0.00133516,-0.000947354,1.02436,-0.000939207,0.00019417,-0.0042251,-0.00234109,-0.843257,-1.02741,0.00298438,0.00196613
384,0.000344161,0.115016,0.0135351,0.23012,0.0531579,0.0531579,0.0531579,0.0531579,0.0531579,0.0531579,0.0531579,0.0531579,0.0531579,0.455321,-0.927862,-0.0468421,1.03462,0.115016,0.0135351,0.23012,0.0680622,-0.0267352,0.00650787,0.0112203,0.00193882,0.0576074,0.0531579,-7.92715,11.1295,-0.527739,0.516725,-5.84244,-0.497473,-1.97451,-5.40212,-0.0530942,-1.36468,0.0440759,0.943569,0.834419,-0.0368023,0.80082,0.0680622,-0.0267352,0.00650787,0.0112203,0.00193882,0.0576074,0,0,0,0,0,0,0,0,0,-0.0349005,-0.030203,-0.00139469,0.733067,-0.00578185,-0.00415005,0.00888312,0.103342,-0.363371,-0.737977,-0.102881,0.00919652
385,0.000344161,-0.0758594,-0.0245752,0.420584,0.0310596,0.0310596,0.0310596,0.0310596,0.0310596,0.0310596,0.0310596,0.0310596,0.0310596,0.0953937,-0.831819,0.0689404,0.840105,-0.0758594,-0.0245752,0.420584,0.0727396,-0.121943,-0.0113564,0.0315583,0.0212574,0.0449581,0.0310596,15.0549,2.78978,1.17732,2.78495,-1.67028,0.0442118,-1.53748,-1.04365,0.431356,3.77503,0.225412,1.10283,-6.5354,0.04641,0.0140591,0.0727396,-0.121943,-0.0113564,0.0315583,0.0212574,0.0449581,0,0,0,0,0,0,0,0,0,0.0313214,0.0575437,0.00394301,0.46235,0.00258039,0.00661074,-0.0157799,0.0466061,-0.152784,-0.462022,-0.0441394,-0.0176377
386,0.000344161,0.109564,0.0305252,0.461339,0.0371095,0.0371095,0.0371095,0.0371095,0.0371095,0.0371095,0.0371095,0.0371095,0.0371095,0.51897,-0.622991,0.0501024,0.812378,0.109564,0.0305252,0.461339,0.0521312,-0.0959639,-0.0342331,0.0538075,-0.00726318,0.0980735,0.0371095,5.97679,-10.7938,2.52292,-12.4351,15.7587,0.376789,-12.7079,-5.07441,1.20911,18.0968,0.484228,11.1874,-5.6923,0.0926349,1.05913,0.0521312,-0.0959639,-0.0342331,0.0538075,-0.00726318,0.0980735,0,0,0,0,0,0,0,0,0,0.0405785,0.0215109,0.019676,0.819265,0.00225191,0.00459365,-0.00231912,0.0636574,-0.436942,-0.81584,-0.0588877,-0.00768017
387,0.000344161,0.00884044,-0.0470117,0.242549,0.094098,0.094098,0.094098,0.094098,0.094098,0.094098,0.094098,0.094098,0.094098,0.663624,-0.808712,-0.005902,1.04616,0.00884044,-0.0470117,0.242549,0.0426484,-0.00425144,0.012352,0.0385252,-0.0110416,0.0866517,0.094098,-0.645042,2.12588,-0.14167,0.140852,-0.604465,-1.14669,-1.33633,-1.53026,-0.022273,-0.147747,-0.0999745,-0.672777,0.0539069,0.00588851,1.76656,0.0426484,-0.00425144,0.012352,0.0385252,-0.0110416,0.0866517,0,0,0,0,0,0,0,0,0,-0.00559031,-0.00244243,-0.000424336,0.851562,-0.00165533,-0.00103487,0.000650801,0.101645,-0.542947,-0.862906,-0.102755,0.00103224
388,0.000344161,0.00416374,-0.0703201,0.407637,0.0543281,0.0543281,0.0543281,0.0543281,0.0543281,0.0543281,0.0543281,0.0543281,0.0543281,0.637824,-0.553193,0.0338654,0.844979,0.00416374,-0.0703201,0.407637,0.0391596,-0.0228911,-0.016655,0.0367576,-0.0426641,0.0688061,0.0543281,2.52843,-0.435549,1.25573,-4.87668,2.07774,0.0642457,-13.6944,-1.64636,0.510947,8.37438,0.413583,11.7766,-3.42738,0.0746002,1.51022,0.0391596,-0.0228911,-0.016655,0.0367576,-0.0426641,0.0688061,0,0,0,0,0,0,0,0,0,0.0294625,0.00907792,0.010182,0.886223,0.00142631,0.00214641,-0.00102152,0.0730959,-0.542637,-0.885747,-0.0693867,-0.00304301
389,0.000344161,-0.120295,-0.00470966,0.417693,0.0410121,0.0410121,0.0410121,0.0410121,0.0410121,0.0410121,0.0410121,0.0410121,0.0410121,0.724946,0.936689,-0.0589879,1.18592,-0.120295,-0.00470966,0.417693,0.0898482,-0.0226083,-0.00387573,0.0236092,-0.0208769,0.0625882,0.0410121,-5.42107,19.3479,0.367147,-0.811633,-5.44905,-0.735529,-0.928172,-13.7786,0.005198,0.00343105,0.0600957,-0.0603943,0.812912,-0.0682539,0.570873,0.0898482,-0.0226083,-0.00387573,0.0236092,-0.0208769,0.0625882,0,0,0,0,0,0,0,0,0,-0.0521414,-0.0205314,0.00179617,0.872283,0.00635537,0.00164921,0.00626875,-0.117181,-0.584544,-0.879677,0.117573,0.00609638
390,0.000344161,-0.0208328,-0.0125166,0.251434,0.0847835,0.0847835,0.0847835,0.0847835,0.0847835,0.0847835,0.0847835,0.0847835,0.0847835,0.606822,-0.67196,0.0152165,0.905535,-0.0208328,-0.0125166,0.251434,0.0645852,0.00717164,0.0261536,0.0498091,-0.0114961,0.0793356,0.0847835,1.6595,-3.4135,0.417657,-1.02715,1.33243,-0.81441,-3.0724,2.1019,0.0475194,0.675986,-0.0636139,1.16812,0.363684,0.0385668,1.65284,0.0645852,0.00717164,0.0261536,0.0498091,-0.0114961,0.0793356,0,0,0,0,0,0,0,0,0,0.0123237,0.00638274,0.0030269,0.845847,0.000172449,0.00122139,-0.00175103,0.0791624,-0.506766,-0.85373,-0.0799135,-0.00164816
391,0.000344161,-0.0603433,0.0186877,0.0236611,0.0464931,0.0464931,0.0464931,0.0464931,0.0464931,0.0464931,0.0464931,0.0464931,0.0464931,-0.537371,0.511194,0.0535069,0.743606,-0.0603433,0.0186877,0.0236611,0.00538266,-0.0451923,0.0449882,0.00840759,0.0534956,-0.00371909,0.0464931,3.50494,1.24596,1.13462,4.6727,-3.48188,-0.123351,-1.12502,2.29626,0.393958,-2.08516,0.17052,1.29729,-2.60623,0.0117774,-0.195934,0.00538266,-0.0451923,0.0449882,0.00840759,0.0534956,-0.00371909,0,0,0,0,0,0,0,0,0,0.00226844,0.0130277,0.0068394,0.0539925,0.000366008,0.00405486,-0.00251211,0.0132377,-0.00586401,-0.0547761,-0.0109975,-0.00448365
392,0.000344161,-0.34704,0.0339143,0.803599,0.00647975,0.00647975,0.00647975,0.00647975,0.00647975,0.00647975,0.00647975,0.00647975,0.00647975,-0.168459,-0.890382,0.0935203,0.910991,-0.34704,0.0339143,0.803599,-0.206414,-0.158547,-0.083149,0.0812078,-0.0260899,0.110252,0.00647975,16.7938,20.5127,0.96558,2.38508,-0.110548,0.125868,-0.118842,-20.0552,-0.233979,-3.3628,-0.00590198,0.0292594,0.943808,0.015641,-0.714016,-0.206414,-0.158547,-0.083149,0.0812078,-0.0260899,0.110252,0,0,0,0,0,0,0,0,0,0.0233131,0.0638287,0.00254832,0.249848,0.00301473,0.00552202,-0.0198722,0.0378979,-0.0580729,-0.249421,-0.0382178,-0.0184788
393,0.000344161,-0.0463305,0.021428,0.0521987,0.0801466,0.0801466,0.0801466,0.0801466,0.0801466,0.0801466,0.0801466,0.0801466,0.0801466,-0.395856,0.904186,0.0198535,0.987243,-0.0463305,0.021428,0.0521987,0.0153347,-0.0137993,0.00630283,0.0128459,0.00127816,6.84857e-05,0.0801466,2.43914,4.48334,-0.106874,0.0048249,-0.186085,1.05029,0.5538,-4.25093,-0.0218594,0.382717,0.0730146,-0.725313,-0.40897,0.00624801,0.119314,0.0153347,-0.0137993,0.00630283,0.0128459,0.00127816,6.84857e-05,0,0,0,0,0,0,0,0,0,0.0018993,0.00944339,-0.000190945,0.127849,-0.000884721,-0.00101579,-0.00287404,-0.0274886,-0.0166778,-0.117283,0.0282315,-0.00279739
394,0.000344161,-0.00255445,-0.0139906,0.124901,0.0735663,0.0735663,0.0735663,0.0735663,0.0735663,0.0735663,0.0735663,0.0735663,0.0735663,0.172471,-0.873935,-0.0264337,0.891183,-0.00255445,-0.0139906,0.124901,0.0258064,0.00549358,-0.00823212,0.0299683,-0.0128603,0.0447831,0.0735663,-5.66369,1.10347,-0.461881,-0.345213,-1.35678,0.0363836,-3.29886,0.255855,-0.156471,-2.00888,0.36505,2.34775,2.36809,-0.0166275,0.826207,0.0258064,0.00549358,-0.00823212,0.0299683,-0.0128603,0.0447831,0,0,0,0,0,0,0,0,0,-0.0144229,-0.0215707,-0.00114531,0.523847,-0.0024996,-0.00341857,0.00598622,0.0657213,-0.188027,-0.523566,-0.0621994,0.00675951
395,0.000344161,0.0416832,-0.370562,1.27908,0.00517134,0.00517134,0.00517134,0.00517134,0.00517134,0.00517134,0.00517134,0.00517134,0.00517134,-0.160601,0.964418,-0.0948287,0.982287,0.0416832,-0.370562,1.27908,0.205888,0.0492297,0.0407658,-0.0475724,0.0121422,-0.113239,0.00517134,-17.1701,-18.9071,0.538234,0.888267,-12.4385,0.15179,-0.127773,31.3039,0.0386074,-1.71721,0.00727828,-0.0976985,1.19951,-0.0176507,-1.05361,0.205888,0.0492297,0.0407658,-0.0475724,0.0121422,-0.113239,0,0,0,0,0,0,0,0,0,-0.0255337,-0.0650856,-0.00175304,0.253208,0.00466905,0.00762767,0.0196906,-0.0529595,-0.0574378,-0.251282,0.0531537,0.019081
396,0.000344161,-0.53417,0.301115,3.58069,0.00540505,0.00540505,0.00540505,0.00540505,0.00540505,0.00540505,0.00540505,0.00540505,0.00540505,0.721147,-0.736617,-0.094595,1.03518,-0.53417,0.301115,3.58069,-0.625757,-0.205205,-0.0664825,-0.000511408,-0.0067749,0.22558,0.00540505,-7.5896,27.5127,-1.86992,4.07716,-6.06122,-0.11334,-0.0364195,-20.9173,0.0403602,0.505661,-0.0293866,-0.115533,-4.88394,-0.0441728,-3.42874,-0.625757,-0.205205,-0.0664825,-0.000511408,-0.0067749,0.22558,0,0,0,0,0,0,0,0,0,-0.0841209,-0.0318528,-0.0105151,0.888655,-0.0105006,-0.0102361,0.00942321,0.100475,-0.601242,-0.890454,-0.100837,0.010131
397,0.000344161,0.135141,-0.00417042,0.258288,0.0349702,0.0349702,0.0349702,0.0349702,0.0349702,0.0349702,0.0349702,0.0349702,0.0349702,0.0719259,-0.752562,-0.0650298,0.758783,0.135141,-0.00417042,0.258288,0.17076,0.0284876,0.00968552,0.0310361,-0.0284417,0.036098,0.0349702,-15.104,-8.89466,-0.418721,-7.84746,17.3416,-0.416055,0.402563,-8.58208,-0.510009,1.31956,0.288383,-0.65906,6.53207,-0.0525034,-0.00179074,0.17076,0.0284876,0.00968552,0.0310361,-0.0284417,0.036098,0,0,0,0,0,0,0,0,0,-0.029397,-0.056864,0.00366127,0.446048,-0.00244848,-0.0075636,0.0154074,0.0257924,-0.144681,-0.450112,-0.0231929,0.0177202
398,0.000344161,0.448917,-0.725616,6.97149,0.00891129,0.00891129,0.00891129,0.00891129,0.00891129,0.00891129,0.00891129,0.00891129,0.00891129,0.991089,0.0846467,-0.0542593,0.996176,0.448917,-0.725616,6.97149,0.0742625,-0.0639108,-0.0330658,0.224504,0.00647092,0.0387706,0.00891129,0.0112369,-0.780988,0.0141702,-4.72409,0.244691,-0.926219,-6.59718,0.0873797,3.18825,-1.99615,0.745799,7.80447,7.44586,0.530026,-8.17878,0.0742625,-0.0639108,-0.0330658,0.224504,0.00647092,0.0387706,0,0,0,0,0,0,0,0,0,-0.056856,-0.00426526,0.00393312,1.02995,0.000110907,-0.00443053,0.012371,-0.0196916,-0.914038,-1.03954,0.0272143,-0.00184877
399,0.000344161,-0.0158653,-0.011569,0.60808,0.0571026,0.0571026,0.0571026,0.0571026,0.0571026,0.0571026,0.0571026,0.0571026,0.0571026,0.942897,-0.365502,0.0393467,1.01203,-0.0158653,-0.011569,0.60808,0.0920062,-0.0163128,-0.0548477,0.0848392,0.0744333,0.0499699,0.0571026,0.268015,-9.97394,0.619786,-10.1109,0.0783945,-0.966077,-2.91452,9.91141,-1.41491,-3.49838,-1.34127,0.198168,13.6208,0.124464,2.10827,0.0920062,-0.0163128,-0.0548477,0.0848392,0.0744333,0.0499699,0,0,0,0,0,0,0,0,0,0.0378551,0.00271813,0.00632215,0.980698,0.00196924,-0.000287412,-0.00573234,0.0797319,-0.846456,-0.990907,-0.0924003,0.00179019
400,0.000344161,-0.0431557,-0.0232858,0.0823212,0.0457049,0.0457049,0.0457049,0.0457049,0.0457049,0.0457049,0.0457049,0.0457049,0.0457049,-0.370203,0.954295,-0.0510796,1.02486,-0.0431557,-0.0232858,0.0823212,0.00313497,-0.0533765,-0.0388288,-0.00619638,0.00981903,-0.0063827,0.0457049,-6.72314,-11.4429,0.237751,0.139662,-3.36698,1.10661,0.377374,14.853,0.0128926,-0.584207,0.0320353,-0.630156,0.467831,-0.00398072,0.17046,0.00313497,-0.0533765,-0.0388288,-0.00619638,0.00981903,-0.0063827,0,0,0,0,0,0,0,0,0,-0.00780842,-0.025842,-0.0012581,0.137802,0.00151906,0.00310184,0.00779157,-0.0364505,-0.0183495,-0.127124,0.036869,0.00770627
401,0.000344161,0.0258782,0.0567997,0.128069,0.0695209,0.0695209,0.0695209,0.0695209,0.0695209,0.0695209,0.0695209,0.0695209,0.0695209,0.286619,-0.832455,0.0304791,0.880943,0.0258782,0.0567997,0.128069,0.136929,-0.0130726,-0.0371933,0.00655138,-0.014338,0.0558517,0.0695209,6.15475,-5.3547,0.617324,0.187582,2.41968,-0.404603,-2.46902,2.90914,0.279412,2.31698,0.360471,1.39103,-2.56136,0.0436575,0.949924,0.136929,-0.0130726,-0.0371933,0.00655138,-0.014338,0.0558517,0,0,0,0,0,0,0,0,0,0.0183074,0.023754,0.00351631,0.618952,0.00125611,0.00252621,-0.00627459,0.0684261,-0.256184,-0.62337,-0.0649648,-0.00720686
402,0.000344161,-0.251247,0.0794568,0.420354,0.0495488,0.0495488,0.0495488,0.0495488,0.0495488,0.0495488,0.0495488,0.0495488,0.0495488,0.949878,-0.861132,-0.0504512,1.28311,-0.251247,0.0794568,0.420354,-0.110897,-0.0363567,0.173767,0.0915719,-0.0291023,0.0920884,0.0495488,-0.401653,19.1636,-0.213385,4.93151,-1.52274,-1.13326,-3.62122,-17.3896,0.22688,2.33102,-0.373792,-2.18181,-7.34199,0.0320228,5.38268,-0.110897,-0.0363567,0.173767,0.0915719,-0.0291023,0.0920884,0,0,0,0,0,0,0,0,0,-0.0467604,-0.00248199,-0.0029377,0.919483,-0.00727353,0.000440282,0.00167301,0.121821,-0.795962,-0.929078,-0.12585,0.00070131
403,0.000344161,-0.662032,-0.00674748,3.16084,0.00932634,0.00932634,0.00932634,0.00932634,0.00932634,0.00932634,0.00932634,0.00932634,0.00932634,0.990674,0.916808,-0.0301502,1.35014,-0.662032,-0.00674748,3.16084,0.105944,-0.0866878,-0.231194,0.282287,0.228463,0.211141,0.00932634,-0.00164221,-0.0133859,0.00505209,-1.01146,-0.0594319,-1.07283,10.6898,0.73485,0.0702979,-1.26594,0.4144,-3.45887,2.28415,0.218821,-10.3918,0.105944,-0.0866878,-0.231194,0.282287,0.228463,0.211141,0,0,0,0,0,0,0,0,0,-0.0283743,-0.000501779,0.00161258,0.916018,0.0028528,-0.00242894,0.000739637,-0.117771,-0.829432,-0.929058,0.1242,0.00112652
404,0.000344161,-0.039566,-0.037243,0.363202,0.0616047,0.0616047,0.0616047,0.0616047,0.0616047,0.0616047,0.0616047,0.0616047,0.0616047,0.801175,-0.441034,0.0383953,0.91535,-0.039566,-0.037243,0.363202,0.0148096,-0.0949121,0.0106735,0.0701039,0.0551796,0.0747168,0.0616047,1.53432,-3.78374,1.07066,0.00342634,-1.16857,-0.585666,-5.80871,4.99187,-0.487039,-1.09968,-0.242561,3.45153,1.1335,0.12011,1.99397,0.0148096,-0.0949121,0.0106735,0.0701039,0.0551796,0.0747168,0,0,0,0,0,0,0,0,0,0.0357974,0.00621446,0.00700523,0.948839,0.00192473,0.00275228,-0.00361585,0.0794286,-0.701858,-0.954589,-0.0813024,-0.00055704
405,0.000344161,-0.0672035,0.00237423,0.562153,0.0328746,0.0328746,0.0328746,0.0328746,0.0328746,0.0328746,0.0328746,0.0328746,0.0328746,0.730235,-0.967125,0.0501466,1.21288,-0.0672035,0.00237423,0.562153,0.0382058,-0.0523614,-0.0323944,0.036836,0.00247478,0.0796628,0.0328746,4.49892,-16.5598,0.183776,-0.33866,5.28749,-0.833668,-1.53013,11.3395,0.00655279,0.00416681,-0.0636672,0.0709807,0.332119,0.10548,0.897,0.0382058,-0.0523614,-0.0323944,0.036836,0.00247478,0.0796628,0,0,0,0,0,0,0,0,0,0.0430038,0.0171868,0.000669927,0.870565,0.00510607,0.000644222,-0.00528189,0.123355,-0.583019,-0.879226,-0.123967,-0.00457312
406,0.000344161,-0.0590875,-0.0293473,0.0217226,0.0804221,0.0804221,0.0804221,0.0804221,0.0804221,0.0804221,0.0804221,0.0804221,0.0804221,-0.448037,-0.86767,-0.0195779,0.976715,-0.0590875,-0.0293473,0.0217226,0.0445149,0.000296004,0.0172186,0.00872648,0.00243521,0.016053,0.0804221,-2.24359,-3.89803,-0.11016,0.0969111,0.79662,0.851594,0.640865,3.1605,0.0117294,0.194973,-0.0703741,-0.768445,-0.262537,0.00229615,0.105857,0.0445149,0.000296004,0.0172186,0.00872648,0.00243521,0.016053,0,0,0,0,0,0,0,0,0,-0.00264034,-0.00850276,7.61781e-06,0.103093,-0.000833565,-0.00110626,0.0025949,0.0206847,-0.0117298,-0.0944047,-0.0213641,0.00258437
407,0.000344161,0.0538425,0.00926685,0.0168651,0.0462111,0.0462111,0.0462111,0.0462111,0.0462111,0.0462111,0.0462111,0.0462111,0.0462111,-0.375594,-0.718815,-0.0537889,0.812809,0.0538425,0.00926685,0.0168651,0.0113809,-0.0237455,0.0328455,0.0134676,-0.005123,-0.000969887,0.0462111,-6.52245,-11.5154,0.446751,1.41707,7.0417,0.316475,-0.372965,4.41984,0.268398,0.472444,-0.142543,0.16435,-1.89878,-0.00463126,0.19175,0.0113809,-0.0237455,0.0328455,0.0134676,-0.005123,-0.000969887,0,0,0,0,0,0,0,0,0,-0.00776341,-0.0253613,0.00365774,0.132851,-0.000455955,0.000572323,0.00860333,0.000290594,-0.0219104,-0.129358,-0.00176725,0.00716599
408,0.000344161,-0.00196711,0.00267714,0.0824022,0.0997843,0.0997843,0.0997843,0.0997843,0.0997843,0.0997843,0.0997843,0.0997843,0.0997843,0.201781,-0.856998,0.000215724,0.880432,-0.00196711,0.00267714,0.0824022,0.0740826,-0.00535128,-0.0109901,0.020115,-0.0156507,0.041067,0.0997843,0.000650585,-0.0502962,-0.0124903,-0.00348703,-0.00436314,-0.131355,-3.25182,0.0566264,0.00438136,0.00548987,0.42873,2.14426,-0.00467999,0.00851494,1.02515,0.0740826,-0.00535128,-0.0109901,0.020115,-0.0156507,0.041067,0,0,0,0,0,0,0,0,0,-0.000447448,0.00020196,0.000486526,0.548903,-0.000764051,-0.000664942,-4.92238e-05,0.0651947,-0.204717,-0.550326,-0.0610639,7.62041e-05
409,0.000344161,0.0758057,-0.0506406,0.537817,0.0166755,0.0166755,0.0166755,0.0166755,0.0166755,0.0166755,0.0166755,0.0166755,0.0166755,0.115158,0.983324,0.0368722,0.990731,0.0758057,-0.0506406,0.537817,-0.00451732,-0.0337837,0.155285,0.0278184,-0.00910664,0.0258954,0.0166755,7.76148,0.121629,-0.120826,-0.0272514,7.90617,0.969464,-3.72285,-8.1036,0.00469793,-0.351079,-0.0197878,2.70345,0.428971,0.0232966,0.481581,-0.00451732,-0.0337837,0.155285,0.0278184,-0.00910664,0.0258954,0,0,0,0,0,0,0,0,0,0.0169299,0.0297402,0.00227763,0.476888,-0.00346418,-0.00382372,-0.00888204,-0.083852,-0.153043,-0.465641,0.083563,-0.00879867
410,0.000344161,-0.0447742,0.00802552,0.0524646,0.0985201,0.0985201,0.0985201,0.0985201,0.0985201,0.0985201,0.0985201,0.0985201,0.0985201,-0.491309,-0.62834,0.00147985,0.79762,-0.0447742,0.00802552,0.0524646,0.0315703,-0.00302881,0.0160594,0.00271061,-0.00891316,0.00333056,0.0985201,0.115387,0.452905,-0.0287917,-0.116136,-0.205543,0.1327,-0.138408,-0.202588,0.0271192,0.0962492,-0.253487,-0.062106,0.0118615,0.00381714,0.14805,0.0315703,-0.00302881,0.0160594,0.00271061,-0.00891316,0.00333056,0,0,0,0,0,0,0,0,0,-0.000453819,0.000522555,4.30106e-05,0.0794079,-0.00041599,-0.000361216,-6.30837e-05,-0.00755165,-0.00965857,-0.0779203,0.00492765,-0.000176494
411,0.000344161,-0.131185,0.151219,0.792697,0.0555017,0.0555017,0.0555017,0.0555017,0.0555017,0.0555017,0.0555017,0.0555017,0.0555017,0.940426,-0.013977,0.0444983,0.941582,-0.131185,0.151219,0.792697,0.066515,-0.063836,-0.0512314,0.168043,0.0018611,0.0432107,0.0555017,0.0810795,-1.42975,0.0509716,-0.335756,-3.75043,-0.347003,-7.98429,5.31137,-2.71438,-0.594648,-0.0749317,5.27263,0.779184,0.196106,1.91897,0.066515,-0.063836,-0.0512314,0.168043,0.0018611,0.0432107,0,0,0,0,0,0,0,0,0,0.0445939,0.00322962,-0.000122013,1.02645,-0.000700133,-6.63086e-06,-0.01024,0.00472044,-0.862626,-1.03043,-0.00545115,0.00368823
412,0.000344161,-0.0221872,0.0273091,0.437576,0.0400558,0.0400558,0.0400558,0.0400558,0.0400558,0.0400558,0.0400558,0.0400558,0.0400558,0.529262,0.88204,0.0599442,1.03039,-0.0221872,0.0273091,0.437576,0.0221719,-0.0214114,0.0350418,0.0207783,-0.0108156,0.0291588,0.0400558,8.86205,-16.3944,-0.889775,1.04899,5.7052,-0.58912,-1.22903,10.7114,0.106127,-1.52677,-0.0172691,0.216878,0.450474,0.0795074,0.574578,0.0221719,-0.0214114,0.0350418,0.0207783,-0.0108156,0.0291588,0,0,0,0,0,0,0,0,0,0.0461012,0.0338983,-0.00409193,0.784389,-0.00637748,-0.00501993,-0.00988831,-0.0982841,-0.426469,-0.78993,0.0980032,-0.00997951
413,0.000344161,-0.193107,-0.169365,0.251448,0.0171069,0.0171069,0.0171069,0.0171069,0.0171069,0.0171069,0.0171069,0.0171069,0.0171069,-0.405683,0.482305,0.0393068,0.63146,-0.193107,-0.169365,0.251448,-0.0608135,0.00306448,-0.0155668,0.0679644,-0.007025,0.00907826,0.0171069,1.54915,-17.7585,1.25377,-2.20491,6.81362,-1.37244,-13.9716,11.138,1.03393,-8.29614,-1.40495,13.6531,10.6704,-0.0272738,0.0670779,-0.0608135,0.00306448,-0.0155668,0.0679644,-0.007025,0.00907826,0,0,0,0,0,0,0,0,0,0.00231918,0.00447397,0.0145049,0.0752819,0.000433868,-0.00193659,0.00254173,0.0214073,-0.0145698,-0.089162,-0.0355271,-0.00305871
414,0.000344161,0.0176206,0.0131402,0.150157,0.0619959,0.0619959,0.0619959,0.0619959,0.0619959,0.0619959,0.0619959,0.0619959,0.0619959,0.00163205,-0.882474,0.0380041,0.883294,0.0176206,0.0131402,0.150157,0.0972552,-0.0298713,-0.0388451,0.0192024,-0.0166941,0.0290115,0.0619959,7.79805,4.56854,0.488587,1.12832,0.271328,0.576681,-2.48888,-4.85749,0.0580602,1.0743,0.194801,1.91006,-2.21576,0.0248622,0.428668,0.0972552,-0.0298713,-0.0388451,0.0192024,-0.0166941,0.0290115,0,0,0,0,0,0,0,0,0,0.0140187,0.0302152,0.00154585,0.383784,0.00126411,0.00304131,-0.00887496,0.0500889,-0.110673,-0.378406,-0.0483078,-0.00899191
415,0.000344161,0.0347085,-0.0259529,0.0466617,0.0510318,0.0510318,0.0510318,0.0510318,0.0510318,0.0510318,0.0510318,0.0510318,0.0510318,-0.410847,-0.728042,-0.0489682,0.8374,0.0347085,-0.0259529,0.0466617,0.0168288,-0.0203743,0.0282373,0.00835216,-0.000259936,0.00415611,0.0510318,-5.61896,-9.9594,0.303379,1.40625,5.66873,0.365684,0.138104,4.25596,0.166892,0.500566,-0.162377,-0.349985,-1.88087,-0.00155936,0.165219,0.0168288,-0.0203743,0.0282373,0.00835216,-0.000259936,0.00415611,0,0,0,0,0,0,0,0,0,-0.0063593,-0.0217518,0.00246545,0.117254,-0.000538955,0.000364593,0.00713501,0.00231972,-0.0175772,-0.113315,-0.00394609,0.00627178
416,0.000344161,0.0762959,0.0329631,0.33288,0.0062072,0.0062072,0.0062072,0.0062072,0.0062072,0.0062072,0.0062072,0.0062072,0.0062072,-0.644686,-0.993793,-0.0212761,1.18478,0.0762959,0.0329631,0.33288,0.137873,0.0876419,0.544295,-0.0363665,0.108929,-0.00592887,0.0062072,-1.52469,-7.04825,-0.0186171,0.0821952,-2.38737,1.87132,-5.6264,9.35932,0.000911398,-0.138873,0.0196843,2.73062,0.0237149,-0.081446,2.5629,0.137873,0.0876419,0.544295,-0.0363665,0.108929,-0.00592887,0,0,0,0,0,0,0,0,0,-0.00141838,-0.00519218,0.00295833,0.0368183,-0.00083364,-0.00226808,0.00156462,0.0205001,0.00136057,-0.0126622,-0.019214,0.00130502
417,0.000344161,0.100189,-0.344073,0.55734,0.0389627,0.0389627,0.0389627,0.0389627,0.0389627,0.0389627,0.0389627,0.0389627,0.0389627,0.902231,0.704794,-0.0610373,1.14651,0.100189,-0.344073,0.55734,0.157366,0.0776916,-0.050209,-0.0124082,0.0114517,0.0200281,0.0389627,-1.71547,21.4489,0.91915,-5.55243,-2.80739,-0.783446,-0.577237,-18.7417,0.524342,-2.981,0.357794,-1.12292,8.8775,-0.0890979,1.14281,0.157366,0.0776916,-0.050209,-0.0124082,0.0114517,0.0200281,0,0,0,0,0,0,0,0,0,-0.0574675,-0.0065037,0.00706127,0.930428,0.00604148,0.00290714,0.00384648,-0.110829,-0.772541,-0.938765,0.114521,0.000941465
418,0.000344161,0.0450442,0.0219321,-0.114805,0.0238959,0.0238959,0.0238959,0.0238959,0.0238959,0.0238959,0.0238959,0.0238959,0.0238959,-0.645255,0.295767,0.0761041,0.713879,0.0450442,0.0219321,-0.114805,-0.0695184,-0.118002,0.0574582,-0.0380378,0.0241438,0.0330739,0.0238959,1.9918,-1.96157,1.11505,4.77955,2.90449,-0.185353,1.81117,-0.987958,0.94715,0.397568,0.0889657,0.514536,-5.19905,0.120849,-2.2109,-0.0695184,-0.118002,0.0574582,-0.0380378,0.0241438,0.0330739,0,0,0,0,0,0,0,0,0,0.000398971,0.00616682,0.00542236,0.0127326,0.000201246,0.0045481,0.00110096,0.00601253,-0.000547029,-0.0140116,-0.00488143,-0.00267498
419,0.000344161,-0.160961,0.144485,0.865779,0.0209238,0.0209238,0.0209238,0.0209238,0.0209238,0.0209238,0.0209238,0.0209238,0.0209238,0.782713,-0.979076,0.0187219,1.25363,-0.160961,0.144485,0.865779,-0.0706053,-0.0361296,-0.062439,0.0612255,0.002985,0.114092,0.0209238,1.48337,-6.65027,0.0326226,-0.0285183,1.60026,-1.18953,-2.40083,5.21097,-0.00442483,-0.12146,-0.0793788,-0.600409,0.00549318,0.0746746,2.13546,-0.0706053,-0.0361296,-0.062439,0.0612255,0.002985,0.114092,0,0,0,0,0,0,0,0,0,0.0159828,0.00515035,0.000254997,0.884528,0.00124454,-0.000290067,-0.00162945,0.125183,-0.628065,-0.897048,-0.125947,-0.000969621
420,0.000344161,-0.0330524,-0.0163534,0.110955,0.0742591,0.0742591,0.0742591,0.0742591,0.0742591,0.0742591,0.0742591,0.0742591,0.0742591,-0.305465,-0.75195,0.0257409,0.812034,-0.0330524,-0.0163534,0.110955,0.0388278,-0.00941519,0.0397682,0.0202771,-0.0104236,0.0238628,0.0742591,3.61421,6.24545,-0.149136,-0.142037,-3.49448,0.488218,-0.961032,-2.71791,-0.144661,-0.252386,-0.123551,0.645005,0.410777,0.00910118,0.205071,0.0388278,-0.00941519,0.0397682,0.0202771,-0.0104236,0.0238628,0,0,0,0,0,0,0,0,0,0.00382709,0.0141556,-0.00124066,0.171325,-0.000347758,-0.000344851,-0.00473148,0.00525868,-0.0319481,-0.166045,-0.00659843,-0.00394474
421,0.000344161,0.0422901,-0.0476506,0.101092,0.0886797,0.0886797,0.0886797,0.0886797,0.0886797,0.0886797,0.0886797,0.0886797,0.0886797,0.239699,0.831387,-0.0113203,0.865325,0.0422901,-0.0476506,0.101092,-0.0363932,-0.0329062,0.0392036,0.00752386,0.00212669,0.00776315,0.0886797,-2.42951,1.32739,0.232898,0.254508,-0.684349,-0.337,-2.69361,-0.685329,-0.110968,0.943384,-0.430752,1.50212,-1.15024,-0.001136,1.09039,-0.0363932,-0.0329062,0.0392036,0.00752386,0.00212669,0.00776315,0,0,0,0,0,0,0,0,0,-0.0073332,-0.00937254,0.00110489,0.583836,0.000290772,0.00089503,0.00243977,-0.0612985,-0.228998,-0.586814,0.0570122,0.00299012
422,0.000344161,-0.0503673,-0.0931202,0.135247,0.0232646,0.0232646,0.0232646,0.0232646,0.0232646,0.0232646,0.0232646,0.0232646,0.0232646,-0.615905,0.693352,-0.0767354,0.930572,-0.0503673,-0.0931202,0.135247,0.0246645,-0.00485276,-0.0181532,-0.12465,-0.0101246,-0.0496731,0.0232646,-6.29399,-5.3407,-0.150227,-2.87163,5.75515,0.0179732,4.25932,-0.36408,-0.671254,1.15343,0.0584486,-0.690284,1.81132,-0.063509,-3.70429,0.0246645,-0.00485276,-0.0181532,-0.12465,-0.0101246,-0.0496731,0,0,0,0,0,0,0,0,0,-0.00386181,-0.0230638,-0.00107189,0.0417639,-0.000259334,-0.000478911,0.00430326,-0.00133746,-0.0027291,-0.0417657,0.0018207,0.00771687
423,0.000344161,0.0483398,0.0106919,0.180016,0.0826728,0.0826728,0.0826728,0.0826728,0.0826728,0.0826728,0.0826728,0.0826728,0.0826728,0.403189,0.775895,0.0173272,0.874571,0.0483398,0.0106919,0.180016,0.0239474,-0.0316963,0.00630188,-0.00786757,-0.00818348,0.0330498,0.0826728,3.03526,-4.6664,-0.444571,0.404983,2.09898,-0.682595,-2.07829,2.51908,0.163152,-1.11384,-0.235413,0.705611,0.698166,0.039007,1.19267,0.0239474,-0.0316963,0.00630188,-0.00786757,-0.00818348,0.0330498,0,0,0,0,0,0,0,0,0,0.011592,0.0115039,-0.00258204,0.714105,-0.00162954,-0.00218063,-0.00301575,-0.0677862,-0.339555,-0.720868,0.0653502,-0.00343189
424,0.000344161,-0.0235884,0.0992446,0.0312445,0.0197754,0.0197754,0.0197754,0.0197754,0.0197754,0.0197754,0.0197754,0.0197754,0.0197754,-0.601045,-0.598458,0.0802246,0.851964,-0.0235884,0.0992446,0.0312445,-0.0609063,0.0227843,-0.00106716,0.110104,-3.03686e-05,-0.0270755,0.0197754,6.08139,3.20399,-0.747945,-5.08087,-6.1882,-0.0101859,2.09184,3.00779,0.631139,0.4947,-0.0990507,-0.396049,4.48693,0.016521,-1.72703,-0.0609063,0.0227843,-0.00106716,0.110104,-3.03686e-05,-0.0270755,0,0,0,0,0,0,0,0,0,0.00292251,0.0223126,-0.00380492,0.0436168,-0.000718275,-0.00344669,-0.0040836,-0.00320589,-0.00328826,-0.0437293,0.00221508,-0.00784259
425,0.000344161,0.337782,0.107615,1.87143,0.0217051,0.0217051,0.0217051,0.0217051,0.0217051,0.0217051,0.0217051,0.0217051,0.0217051,0.978295,-0.538902,0.0309625,1.11733,0.337782,0.107615,1.87143,0.0187527,-0.0529424,-0.129616,0.0282558,-0.112299,0.145994,0.0217051,0.00869156,-2.57666,0.132707,-6.84766,0.183478,-1.10187,6.94324,2.0554,-0.810002,-2.24256,-1.8146,-2.71196,8.9826,-0.210598,-6.10271,0.0187527,-0.0529424,-0.129616,0.0282558,-0.112299,0.145994,0,0,0,0,0,0,0,0,0,0.028868,0.00108211,0.00449702,0.952413,0.00186762,-0.00369938,-0.00296384,0.0991189,-0.862582,-0.964728,-0.118388,0.000621869
426,0.000344161,-0.175377,-0.0640354,0.213955,0.0368627,0.0368627,0.0368627,0.0368627,0.0368627,0.0368627,0.0368627,0.0368627,0.0368627,-0.0397792,-0.722771,0.0631373,0.726614,-0.175377,-0.0640354,0.213955,0.100441,-0.0082207,0.0594215,0.0272443,-0.0328378,0.0236502,0.0368627,13.148,19.4686,-1.02175,0.812792,-36.7413,-0.845466,-3.94048,17.448,0.369995,6.39655,0.359363,3.65271,-7.1453,0.0470166,0.0738094,0.100441,-0.0082207,0.0594215,0.0272443,-0.0328378,0.0236502,0,0,0,0,0,0,0,0,0,0.0212551,0.0504155,-0.014653,0.348893,-1.23177e-05,0.00435329,-0.0138403,0.00813502,-0.100006,-0.356754,-0.00486977,-0.0154732
427,0.000344161,0.0110917,-0.0216434,0.0295019,0.0945207,0.0945207,0.0945207,0.0945207,0.0945207,0.0945207,0.0945207,0.0945207,0.0945207,-0.618932,-0.905479,0.00230878,1.0968,0.0110917,-0.0216434,0.0295019,0.018479,-0.00331493,0.020618,0.0148548,0.027757,0.0190635,0.0945207,0.105244,0.16218,0.0165996,-0.0512286,0.225183,1.11508,-2.68301,-0.398455,-0.00446431,-0.0752876,0.121684,0.370776,0.14816,-0.0239687,2.28273,0.018479,-0.00331493,0.020618,0.0148548,0.027757,0.0190635,0,0,0,0,0,0,0,0,0,-0.000510424,0.000469528,0.000139366,0.0408883,-0.000357369,-6.51985e-06,-9.71337e-05,0.0156956,-0.000661425,-0.0295313,-0.0142012,-0.000173612
428,0.000344161,-0.175035,-0.167041,0.573281,0.0496379,0.0496379,0.0496379,0.0496379,0.0496379,0.0496379,0.0496379,0.0496379,0.0496379,0.922684,0.516122,-0.0503621,1.05843,-0.175035,-0.167041,0.573281,0.0909391,0.0239778,0.00106812,-0.0316832,0.057519,0.0678766,0.0496379,-0.842986,16.973,0.967669,-9.35147,-1.25732,-0.8988,-2.30122,-15.5406,1.21014,-4.3843,0.768038,-0.880919,13.9028,-0.0610059,2.60886,0.0909391,0.0239778,0.00106812,-0.0316832,0.057519,0.0678766,0,0,0,0,0,0,0,0,0,-0.0490261,-0.00426017,0.00854262,0.956804,0.00411419,0.00137385,0.00539233,-0.0967343,-0.812835,-0.965782,0.10499,-0.00046558
429,0.000344161,-0.0521024,0.0274555,0.323008,0.0773,0.0773,0.0773,0.0773,0.0773,0.0773,0.0773,0.0773,0.0773,0.587768,0.636157,0.0227,0.866419,-0.0521024,0.0274555,0.323008,0.0101381,-0.0541078,0.0746994,0.0320502,-0.016202,0.0433075,0.0773,2.47543,-4.62392,-0.77758,2.54772,3.03404,-0.484581,-6.34875,1.64198,0.224868,-2.93909,-0.0849094,4.53682,0.363915,0.0553678,1.48892,0.0101381,-0.0541078,0.0746994,0.0320502,-0.016202,0.0433075,0,0,0,0,0,0,0,0,0,0.0183576,0.00914958,-0.00538598,0.847382,-0.00211952,-0.0029309,-0.00199367,-0.0702784,-0.494542,-0.851481,0.0692673,-0.00278489
430,0.000344161,0.000619531,0.0609773,0.114085,0.0890475,0.0890475,0.0890475,0.0890475,0.0890475,0.0890475,0.0890475,0.0890475,0.0890475,0.346208,-0.826618,0.0109525,0.896258,0.000619531,0.0609773,0.114085,0.105982,0.00734996,-0.0119858,0.0172366,-0.0136862,0.0692368,0.0890475,2.04337,-2.36822,0.206756,-0.0824279,0.958971,-0.603904,-2.46264,1.40863,0.100257,0.734275,0.316006,1.15344,-0.712824,0.0252259,1.19511,0.105982,0.00734996,-0.0119858,0.0172366,-0.0136862,0.0692368,0,0,0,0,0,0,0,0,0,0.00672685,0.00802217,0.00163118,0.664591,-6.64014e-05,0.000509877,-0.00213712,0.0737294,-0.29506,-0.67075,-0.0707062,-0.00225227
431,0.000344161,0.0546875,0.0250955,0.0409868,0.0401121,0.0401121,0.0401121,0.0401121,0.0401121,0.0401121,0.0401121,0.0401121,0.0401121,-0.403071,-0.679297,-0.0598879,0.792147,0.0546875,0.0250955,0.0409868,0.00446999,-0.0360968,0.0273075,0.0104517,-0.0079779,0.00363708,0.0401121,-6.65205,-11.4108,0.758003,2.64814,8.18651,0.196301,-0.671009,3.16965,0.248789,-0.419195,-0.135441,0.450068,-2.25404,-0.00515899,0.179954,0.00446999,-0.0360968,0.0273075,0.0104517,-0.0079779,0.00363708,0,0,0,0,0,0,0,0,0,-0.00764202,-0.025865,0.00546353,0.11756,-0.000130216,0.00175553,0.00866913,-0.00496437,-0.0185553,-0.115324,0.00353018,0.00736531
432,0.000344161,-0.154431,0.0920627,0.628215,0.0343564,0.0343564,0.0343564,0.0343564,0.0343564,0.0343564,0.0343564,0.0343564,0.0343564,0.613884,-0.809424,-0.0656436,1.018,-0.154431,0.0920627,0.628215,0.182803,-0.00539297,0.0192337,0.0117487,-0.0158958,0.0880411,0.0343564,-8.242,19.4946,-1.28483,1.56753,-5.33759,-0.630489,-0.617849,-14.0026,-0.141576,-1.05372,-0.0450756,-0.359896,-0.605865,-0.0633762,0.34953,0.182803,-0.00539297,0.0192337,0.0117487,-0.0158958,0.0880411,0,0,0,0,0,0,0,0,0,-0.0551039,-0.0308756,-0.00632671,0.833645,-0.007421,-0.00657548,0.00877128,0.0974318,-0.500814,-0.839758,-0.0980416,0.00954374
433,0.000344161,-0.0145686,0.211426,0.44821,0.0537427,0.0537427,0.0537427,0.0537427,0.0537427,0.0537427,0.0537427,0.0537427,0.0537427,0.711196,0.473817,0.0259997,0.854973,-0.0145686,0.211426,0.44821,0.0127622,-0.0223821,-0.00540924,0.0703314,0.0420651,0.0634294,0.0537427,1.23068,2.92894,-0.760687,1.35399,-1.37967,0.0300566,-15.0153,-1.5347,0.233009,-4.7982,-0.480648,12.6639,3.23278,0.0755567,1.90317,0.0127622,-0.0223821,-0.00540924,0.0703314,0.0420651,0.0634294,0,0,0,0,0,0,0,0,0,0.0231371,0.00427211,-0.00655923,0.927176,-0.00247132,-0.00127146,-0.00042842,-0.0728591,-0.615652,-0.926929,0.0684733,-0.00125019
434,0.000344161,-0.0638692,0.000694841,0.0438511,0.0786146,0.0786146,0.0786146,0.0786146,0.0786146,0.0786146,0.0786146,0.0786146,0.0786146,-0.412998,0.855489,-0.0213854,0.950203,-0.0638692,0.000694841,0.0438511,0.0181451,-0.0216487,0.0213966,-0.00137681,0.00343609,0.00474393,0.0786146,-2.6079,-4.34806,0.0855399,-0.147522,1.0304,0.817293,0.609061,3.38153,0.0267157,-0.274772,0.104573,-0.787854,0.421599,1.67377e-05,0.134942,0.0181451,-0.0216487,0.0213966,-0.00137681,0.00343609,0.00474393,0,0,0,0,0,0,0,0,0,-0.00320705,-0.00999533,1.85892e-06,0.119929,8.18726e-05,0.000637054,0.00308014,-0.0197561,-0.0159146,-0.111542,0.0208362,0.00297725
435,0.000344161,0.137407,-0.177319,0.294485,0.0863905,0.0863905,0.0863905,0.0863905,0.0863905,0.0863905,0.0863905,0.0863905,0.0863905,0.888337,-0.637008,-0.0136095,1.09321,0.137407,-0.177319,0.294485,-0.0134485,-0.0260082,0.013176,0.0462333,0.0709963,0.110806,0.0863905,-0.297954,5.79729,-0.295049,2.17715,-0.712606,-1.33159,-1.5448,-5.22209,0.188115,1.08913,-0.71849,-1.61238,-3.08897,0.00958195,2.86269,-0.0134485,-0.0260082,0.013176,0.0462333,0.0709963,0.110806,0,0,0,0,0,0,0,0,0,-0.013227,-0.00160701,-0.00198851,0.930993,-0.00260424,-0.00122206,0.00112174,0.106106,-0.765362,-0.944178,-0.112581,0.000551938
436,0.000344161,0.0778008,-0.0203516,0.256951,0.0529158,0.0529158,0.0529158,0.0529158,0.0529158,0.0529158,0.0529158,0.0529158,0.0529158,0.402728,0.875549,-0.0470842,0.964879,0.0778008,-0.0203516,0.256951,-0.00524104,-0.023572,0.00157928,0.00436151,0.00395203,0.0133829,0.0529158,-8.5686,10.6833,0.810178,-0.565729,-4.67138,-0.53454,-1.81892,-6.08971,-0.16114,2.24175,-0.127303,0.752642,-1.65567,-0.0352205,0.809327,-0.00524104,-0.023572,0.00157928,0.00436151,0.00395203,0.0133829,0,0,0,0,0,0,0,0,0,-0.0338454,-0.0327702,0.00386306,0.703302,0.00361372,0.004003,0.00931509,-0.0860182,-0.331975,-0.708632,0.0847847,0.0099898
437,0.000344161,-0.00942218,0.0324621,0.134323,0.0942366,0.0942366,0.0942366,0.0942366,0.0942366,0.0942366,0.0942366,0.0942366,0.0942366,0.467406,-0.846341,-0.00576338,0.966848,-0.00942218,0.0324621,0.134323,0.0566618,-0.00145097,-0.014061,0.0313254,-0.0132656,0.0749555,0.0942366,-0.983769,1.61371,-0.136851,0.0245197,-0.64768,-0.854279,-1.79108,-0.956605,-0.0248667,-0.304493,0.111128,0.367852,0.247512,0.00664066,1.2889,0.0566618,-0.00145097,-0.014061,0.0313254,-0.0132656,0.0749555,0,0,0,0,0,0,0,0,0,-0.0048612,-0.0036674,-0.00027387,0.745385,-0.00146165,-0.00110915,0.00100043,0.0895181,-0.379955,-0.754068,-0.0885395,0.00137612
438,0.000344161,0.0362849,0.088403,-0.0278391,0.0475437,0.0475437,0.0475437,0.0475437,0.0475437,0.0475437,0.0475437,0.0475437,0.0475437,-0.614457,0.661519,0.0524563,0.904388,0.0362849,0.088403,-0.0278391,5.1856e-05,-0.0483496,-0.000623703,0.0103827,-0.00733128,0.028318,0.0475437,4.07664,7.95918,0.250115,2.10569,-3.81679,0.0434553,1.40462,-4.17867,0.509558,-0.704837,0.141534,-1.26622,-1.48925,0.100126,-0.110556,5.1856e-05,-0.0483496,-0.000623703,0.0103827,-0.00733128,0.028318,0,0,0,0,0,0,0,0,0,0.00164275,0.0149314,0.00124342,0.0418997,-0.000272894,0.000774231,-0.00285231,0.000732325,-0.00268058,-0.0414714,0.000609705,-0.00480979
439,0.000344161,-0.0142479,-0.0459778,0.689375,0.0666851,0.0666851,0.0666851,0.0666851,0.0666851,0.0666851,0.0666851,0.0666851,0.0666851,0.891393,-0.021168,0.0273931,0.892065,-0.0142479,-0.0459778,0.689375,0.0607648,-0.0442334,-0.0283127,-0.00374442,0.0167359,0.0989175,0.0666851,0.034241,1.19047,0.0356416,0.267547,-2.21598,-0.100553,-4.07191,1.03976,-1.4746,-0.315768,-0.018702,0.794168,0.0941988,0.163689,2.58837,0.0607648,-0.0442334,-0.0283127,-0.00374442,0.0167359,0.0989175,0,0,0,0,0,0,0,0,0,0.0269549,0.00176818,-0.000220484,1.02203,-0.000744024,0.000134566,-0.00609858,0.00666473,-0.812294,-1.02332,-0.00668439,0.00260619
440,0.000344161,0.0573139,0.148729,1.08975,0.0175393,0.0175393,0.0175393,0.0175393,0.0175393,0.0175393,0.0175393,0.0175393,0.0175393,0.771829,0.922059,0.0824607,1.20529,0.0573139,0.148729,1.08975,0.169753,-0.028265,-0.0182495,0.0531418,-0.0075388,0.000886202,0.0175393,6.03751,-27.7516,-0.551995,1.65697,6.66826,-0.390342,-0.200901,21.026,-0.0324457,0.173832,0.0504352,-0.0856505,-1.97953,0.116572,-0.803196,0.169753,-0.028265,-0.0182495,0.0531418,-0.0075388,0.000886202,0,0,0,0,0,0,0,0,0,0.0722847,0.0237147,-0.0027517,0.891133,-0.01023,-0.0030509,-0.00721816,-0.117457,-0.628006,-0.895219,0.117886,-0.00673435
441,0.000344161,0.502708,0.69577,3.30995,0.0115848,0.0115848,0.0115848,0.0115848,0.0115848,0.0115848,0.0115848,0.0115848,0.0115848,0.832745,-0.476347,-0.0884152,0.963425,0.502708,0.69577,3.30995,-0.134898,-0.264582,-0.0621796,0.105299,0.0119877,0.0492152,0.0115848,-3.52438,14.7445,-2.32017,4.76539,-0.96361,-0.165991,-0.384026,-14.2836,1.38593,4.82788,-0.11777,0.202922,-10.289,-0.0756346,-3.12885,-0.134898,-0.264582,-0.0621796,0.105299,0.0119877,0.0492152,0,0,0,0,0,0,0,0,0,-0.0845383,-0.0157643,-0.0154052,0.952714,-0.0088028,-0.0104424,0.00998822,0.0888725,-0.729087,-0.954996,-0.0899303,0.00239999
442,0.000344161,-0.500294,0.367482,2.97727,0.00424807,0.00424807,0.00424807,0.00424807,0.00424807,0.00424807,0.00424807,0.00424807,0.00424807,0.477757,-0.891782,-0.0957519,1.01622,-0.500294,0.367482,2.97727,-0.665243,-0.138853,-0.0330276,-0.0227814,0.00408745,0.15261,0.00424807,-14.9406,26.1449,-1.40542,1.73432,-9.63585,-0.070008,-0.128238,-16.0087,-0.10732,-2.75137,-7.79517e-05,0.0700719,0.649562,-0.0302126,-2.91911,-0.665243,-0.138853,-0.0330276,-0.0227814,0.00408745,0.15261,0,0,0,0,0,0,0,0,0,-0.0724,-0.0600135,-0.00678213,0.753767,-0.010371,-0.00866057,0.0173651,0.0980297,-0.384416,-0.754798,-0.0979896,0.0186276
443,0.000344161,-0.0315819,-0.0146046,0.557304,0.00960614,0.00960614,0.00960614,0.00960614,0.00960614,0.00960614,0.00960614,0.00960614,0.00960614,0.0497032,0.990394,-0.047818,0.992793,-0.0315819,-0.0146046,0.557304,-0.0916148,0.0215952,0.289654,-0.0180939,0.0106606,-0.00454664,0.00960614,-9.92082,-3.36063,0.0860664,0.0747795,-9.5526,1.03863,-2.68338,12.9448,-0.000183634,0.0964833,2.15145e-05,1.63476,-0.156658,-0.0195053,0.491315,-0.0916148,0.0215952,0.289654,-0.0180939,0.0106606,-0.00454664,0,0,0,0,0,0,0,0,0,-0.0210197,-0.0384605,-0.00378358,0.423039,0.00341091,0.00486019,0.0115103,-0.078734,-0.123947,-0.409756,0.0788408,0.0114814
444,0.000344161,-0.00160027,-0.0605062,0.0376449,0.0729975,0.0729975,0.0729975,0.0729975,0.0729975,0.0729975,0.0729975,0.0729975,0.0729975,-0.345266,-0.896324,-0.0270025,0.960903,-0.00160027,-0.0605062,0.0376449,0.0371041,0.010325,0.0107126,0.0191606,-0.00348234,0.0184727,0.0729975,-3.67743,-6.06802,-0.169251,-0.0996574,0.466021,0.99784,0.420429,5.6036,0.0432715,0.658386,-0.0872632,-0.651432,-0.498223,-0.000806015,0.193358,0.0371041,0.010325,0.0107126,0.0191606,-0.00348234,0.0184727,0,0,0,0,0,0,0,0,0,-0.00472972,-0.0140937,0.00013302,0.151559,-0.0012616,-0.00172228,0.00442012,0.0294638,-0.0230534,-0.141473,-0.0303713,0.00419629
445,0.000344161,-0.0789413,0.112116,-0.102919,0.0295913,0.0295913,0.0295913,0.0295913,0.0295913,0.0295913,0.0295913,0.0295913,0.0295913,-0.413463,-0.492302,0.0464859,0.644572,-0.0789413,0.112116,-0.102919,0.0649149,-0.0188581,0.040822,0.0625376,-0.0790484,0.0229779,0.0295913,2.25591,-13.4581,-1.50894,-2.95534,1.44046,-1.07354,-16.5996,12.0966,0.965939,13.4456,1.017,16.3673,-10.6024,-0.00377049,0.335264,0.0649149,-0.0188581,0.040822,0.0625376,-0.0790484,0.0229779,0,0,0,0,0,0,0,0,0,0.0029992,0.0077174,-0.0153809,0.0779185,-0.00138351,0.000102949,0.00125564,-0.0226739,-0.0140901,-0.0882456,0.0320534,-0.00379071
446,0.000344161,1.71348,1.11265,-0.114618,0.00526508,0.00526508,0.00526508,0.00526508,0.00526508,0.00526508,0.00526508,0.00526508,0.00526508,-0.261315,0.594648,-0.0947349,0.656404,1.71348,1.11265,-0.114618,-0.940316,-0.244626,-0.570246,0.350946,-0.405209,0.0812964,0.00526508,-8.16157,70.8423,-4.44927,0.204147,-13.5805,-0.300597,-0.893369,-58.9753,-2.4962,37.0011,-0.211519,0.554236,-38.3179,-0.0100982,0.453751,-0.940316,-0.244626,-0.570246,0.350946,-0.405209,0.0812964,0,0,0,0,0,0,0,0,0,-0.0159112,-0.0326141,-0.0508817,0.176585,-0.00231062,0.00394275,0.00216906,0.0299229,-0.0387093,-0.185294,-0.0360901,0.0132513
447,0.000344161,0.0249114,-0.0205625,-0.0211499,0.0502963,0.0502963,0.0502963,0.0502963,0.0502963,0.0502963,0.0502963,0.0502963,0.0502963,-0.622745,0.0618165,-0.0335513,0.626705,0.0249114,-0.0205625,-0.0211499,0.0125151,0.00229865,0.0157105,0.0144441,0.0382282,-0.000410028,0.0502963,-0.0645158,1.44305,-0.0684822,0.489145,-1.22781,-0.0646238,0.105037,-0.240155,-0.255643,-0.363936,-0.0150679,-0.0875282,-0.104646,-0.00637462,0.00364098,0.0125151,0.00229865,0.0157105,0.0144441,0.0382282,-0.000410028,0,0,0,0,0,0,0,0,0,-0.000634208,8.61317e-05,-0.000512722,0.00244123,-0.000401014,-0.000149114,-0.000859858,0.00170556,0.000186391,-0.00293037,-0.00147396,0.000312212
448,0.000344161,0.364893,0.223156,4.68857,0.00286084,0.00286084,0.00286084,0.00286084,0.00286084,0.00286084,0.00286084,0.00286084,0.00286084,0.391438,-0.997139,-0.0276559,1.07158,0.364893,0.223156,4.68857,0.0218872,-0.0104711,0.320488,0.0174298,-0.0307207,0.0733011,0.00286084,-4.97117,5.25737,-0.0135055,-0.0190561,-4.65785,-0.140788,-3.49629,-0.964419,-0.00104983,-0.228461,-0.018716,-2.24936,0.024361,-0.0152848,1.05707,0.0218872,-0.0104711,0.320488,0.0174298,-0.0307207,0.0733011,0,0,0,0,0,0,0,0,0,-0.0197062,-0.0191216,0.00221952,0.689841,-0.00401381,-0.00245928,0.00570677,0.112729,-0.31019,-0.688044,-0.113224,0.00591496
449,0.000344161,-0.0172663,-0.0367756,0.107615,0.0118201,0.0118201,0.0118201,0.0118201,0.0118201,0.0118201,0.0118201,0.0118201,0.0118201,-0.521648,0.297547,-0.0839586,0.606383,-0.0172663,-0.0367756,0.107615,0.00561664,-0.132816,-0.0263672,-0.0177795,-0.116762,0.0535853,0.0118201,-0.665921,24.1253,-1.07032,19.6519,-15.6578,-0.141533,0.0431255,-8.45023,-1.74962,-3.40054,-0.294618,-0.424616,-16.2146,0.00715616,0.273876,0.00561664,-0.132816,-0.0263672,-0.0177795,-0.116762,0.0535853,0,0,0,0,0,0,0,0,0,-0.00222878,-0.000570415,-0.0139385,0.0219866,-0.00138761,0.00190711,-0.00610588,0.0161028,-0.00296173,-0.0236656,-0.0202166,0.00303482
450,0.000344161,-0.0966854,0.0915656,0.42977,0.0320444,0.0320444,0.0320444,0.0320444,0.0320444,0.0320444,0.0320444,0.0320444,0.0320444,0.25157,0.741438,0.0679556,0.785898,-0.0966854,0.0915656,0.42977,-0.0337951,0.0691547,0.0510101,-0.00352073,0.0245223,0.0109758,0.0320444,15.1287,-16.2716,-2.04564,-5.94589,12.1262,-0.172256,0.726664,4.2421,0.871301,0.0112176,-0.235746,-1.21666,5.84311,0.0673121,0.0602311,-0.0337951,0.0691547,0.0510101,-0.00352073,0.0245223,0.0109758,0,0,0,0,0,0,0,0,0,0.0403714,0.0569657,-0.0111264,0.605597,-0.00335634,-0.00863849,-0.0141699,-0.0421816,-0.240984,-0.60681,0.0400694,-0.0181174
451,0.000344161,0.0898323,-0.101981,0.929814,0.00329479,0.00329479,0.00329479,0.00329479,0.00329479,0.00329479,0.00329479,0.00329479,0.00329479,-0.398653,0.984076,-0.0967052,1.06615,0.0898323,-0.101981,0.929814,0.261299,0.146702,0.00536537,-0.103072,0.0338893,-0.0810461,0.00329479,-12.4034,-22.9138,0.187611,0.260143,-10.3231,0.113503,-0.0643485,33.147,0.00414808,-0.611672,0.000614439,-0.11301,0.45351,-0.0037811,-0.752455,0.261299,0.146702,0.00536537,-0.103072,0.0338893,-0.0810461,0,0,0,0,0,0,0,0,0,-0.0126074,-0.0464882,-0.00344115,0.11324,0.0034273,0.00678427,0.0137275,-0.038798,-0.0143107,-0.112051,0.0391431,0.013798
452,0.000344161,-0.0327702,0.0832446,1.1552,0.0207932,0.0207932,0.0207932,0.0207932,0.0207932,0.0207932,0.0207932,0.0207932,0.0207932,0.739431,0.755208,0.0792068,1.05989,-0.0327702,0.0832446,1.1552,0.00877905,0.116976,0.0282059,0.0453761,0.0128231,0.0275109,0.0207932,6.51018,-25.6638,-1.6463,2.98755,6.04663,-0.454494,-0.272157,19.65,-0.0178472,0.533339,0.0997228,-0.415823,-3.60414,0.12257,-0.467216,0.00877905,0.116976,0.0282059,0.0453761,0.0128231,0.0275109,0,0,0,0,0,0,0,0,0,0.0694902,0.024868,-0.00774565,0.892399,-0.00846233,-0.00754756,-0.00758916,-0.100344,-0.617315,-0.896662,0.10147,-0.0069764
453,0.000344161,-0.0733261,0.104141,0.284189,0.0533455,0.0533455,0.0533455,0.0533455,0.0533455,0.0533455,0.0533455,0.0533455,0.0533455,0.891909,-0.907319,0.0466545,1.27315,-0.0733261,0.104141,0.284189,0.153084,-0.0450847,-0.0661621,-0.000586152,0.0309782,0.0505704,0.0533455,1.39524,-18.6421,0.263813,-1.52529,2.54786,-1.08289,-0.16645,16.1675,-0.0464388,-0.684777,-0.195016,-1.29136,2.10592,0.140653,1.17362,0.153084,-0.0450847,-0.0661621,-0.000586152,0.0309782,0.0505704,0,0,0,0,0,0,0,0,0,0.0418231,0.00578871,0.00201046,0.910184,0.00454239,0.000176824,-0.00218803,0.122555,-0.736496,-0.921674,-0.124196,-0.000996793
454,0.000344161,-0.0890274,-0.0633414,0.407366,0.0622647,0.0622647,0.0622647,0.0622647,0.0622647,0.0622647,0.0622647,0.0622647,0.0622647,0.834112,-0.738097,-0.0377353,1.11443,-0.0890274,-0.0633414,0.407366,0.0514762,-0.0154416,0.00722504,0.0296942,0.0460415,0.0819629,0.0622647,-1.90622,14.573,-0.710883,1.91906,-2.47082,-1.11957,-0.93915,-12.0132,0.129022,1.1921,-0.324563,-1.23713,-3.04782,-0.059372,1.76892,0.0514762,-0.0154416,0.00722504,0.0296942,0.0460415,0.0819629,0,0,0,0,0,0,0,0,0,-0.0349306,-0.00734284,-0.00382745,0.912253,-0.00527495,-0.0034358,0.00272447,0.109836,-0.703377,-0.923376,-0.112621,0.00204385
455,0.000344161,-0.106521,-0.0283474,0.0339394,0.0595773,0.0595773,0.0595773,0.0595773,0.0595773,0.0595773,0.0595773,0.0595773,0.0595773,-0.398133,-0.940423,0.0265345,1.02157,-0.106521,-0.0283474,0.0339394,0.0399654,-0.0144394,-0.0367184,0.0145233,-0.0108764,0.0153178,0.0595773,3.24572,6.06116,0.12784,0.0439253,1.37884,1.26895,0.440239,-7.33347,-0.0146812,-0.410884,-0.0432959,-0.560233,0.395306,0.00762464,0.0860547,0.0399654,-0.0144394,-0.0367184,0.0145233,-0.0108764,0.0153178,0,0,0,0,0,0,0,0,0,0.00269854,0.012611,-0.000118992,0.125004,0.00043199,0.001253,-0.00381825,0.0332482,-0.0149178,-0.112681,-0.0337899,-0.00370275
456,0.000344161,-0.0276604,-0.12528,0.460118,0.0480555,0.0480555,0.0480555,0.0480555,0.0480555,0.0480555,0.0480555,0.0480555,0.0480555,0.616647,0.67907,-0.0519445,0.918743,-0.0276604,-0.12528,0.460118,0.0677555,-0.0889019,0.0391617,0.0341185,0.00289059,0.0193799,0.0480555,-5.96305,13.7899,1.6259,-2.51107,-4.81036,-0.654553,-1.78763,-8.95186,-0.236798,2.00219,0.085752,0.418939,0.634168,-0.0585873,0.908575,0.0677555,-0.0889019,0.0391617,0.0341185,0.00289059,0.0193799,0,0,0,0,0,0,0,0,0,-0.0450667,-0.0223951,0.0095295,0.852088,0.00353368,0.00584052,0.00606797,-0.0781546,-0.516204,-0.858242,0.079041,0.00688533
457,0.000344161,-0.028475,-0.0180573,0.296416,0.0380692,0.0380692,0.0380692,0.0380692,0.0380692,0.0380692,0.0380692,0.0380692,0.0380692,0.217113,0.83108,-0.0619308,0.861201,-0.028475,-0.0180573,0.296416,0.0445545,-0.0794548,0.0276833,0.0204654,-0.0140076,-0.00225163,0.0380692,-13.4314,6.19586,1.26427,1.47388,-2.92942,-0.180093,-1.73308,-3.23796,-0.533645,4.41374,-0.266533,1.02095,-5.86957,-0.0428485,0.415708,0.0445545,-0.0794548,0.0276833,0.0204654,-0.0140076,-0.00225163,0,0,0,0,0,0,0,0,0,-0.0357542,-0.0508439,0.00556704,0.566147,0.00322018,0.00628108,0.0135247,-0.0575697,-0.216452,-0.567671,0.0547643,0.0158651
458,0.000344161,0.0588036,0.18083,0.842316,0.0246789,0.0246789,0.0246789,0.0246789,0.0246789,0.0246789,0.0246789,0.0246789,0.0246789,0.645384,0.752112,0.0753211,0.993914,0.0588036,0.18083,0.842316,-0.051715,0.143279,0.0753632,0.0233405,0.0316925,0.0457058,0.0246789,8.39843,-22.925,-1.81467,2.26178,6.33167,-0.482658,-0.599269,16.5345,0.160931,-0.789385,0.0598843,-0.245321,-1.65323,0.10616,0.0022743,-0.051715,0.143279,0.0753632,0.0233405,0.0316925,0.0457058,0,0,0,0,0,0,0,0,0,0.0634421,0.0317149,-0.00863143,0.857243,-0.00733014,-0.00808249,-0.00909732,-0.0904653,-0.534838,-0.861316,0.0913811,-0.00925935
459,0.000344161,-0.0800099,0.0147505,0.0594957,0.0227545,0.0227545,0.0227545,0.0227545,0.0227545,0.0227545,0.0227545,0.0227545,0.0227545,-0.541255,0.498044,0.0772455,0.739575,-0.0800099,0.0147505,0.0594957,-0.0586641,-0.081612,0.0629473,0.0820451,0.0754824,-0.0271261,0.0227545,4.93506,0.810919,1.71468,7.092,-4.53343,-0.0666483,-0.689748,3.80252,0.493168,-3.3546,0.0877774,0.940508,-3.75215,0.00520965,-0.310256,-0.0586641,-0.081612,0.0629473,0.0820451,0.0754824,-0.0271261,0,0,0,0,0,0,0,0,0,0.00335699,0.018117,0.00998945,0.0522551,0.000700971,0.00634123,-0.00338897,0.0133467,-0.00563551,-0.0522921,-0.0117142,-0.00637462
460,0.000344161,0.0539565,0.0274606,0.251752,0.0657713,0.0657713,0.0657713,0.0657713,0.0657713,0.0657713,0.0657713,0.0657713,0.0657713,0.68359,0.901597,-0.0342287,1.13196,0.0539565,0.0274606,0.251752,0.0398597,-0.0340383,0.0173721,0.024994,-0.0202465,0.0456904,0.0657713,-3.58393,11.0264,0.358222,-0.549424,-3.27267,-0.994021,-1.32393,-7.80765,-0.0132139,0.150694,0.0658264,-0.271489,0.37127,-0.0400218,1.34366,0.0398597,-0.0340383,0.0173721,0.024994,-0.0202465,0.0456904,0,0,0,0,0,0,0,0,0,-0.0300965,-0.0136512,0.00178987,0.855957,0.00327173,0.00145197,0.00412807,-0.111311,-0.552347,-0.865724,0.111767,0.00409752
461,0.000344161,0.216671,-0.110312,0.21062,0.0512832,0.0512832,0.0512832,0.0512832,0.0512832,0.0512832,0.0512832,0.0512832,0.0512832,0.214836,0.785421,-0.0487168,0.81573,0.216671,-0.110312,0.21062,-0.0617551,-0.0508648,0.0255814,0.0214239,0.00957394,0.00722647,0.0512832,-10.7811,5.89418,1.08798,2.95303,-2.77443,-0.281007,-1.04882,-3.33642,-0.568022,2.23682,-0.374142,0.143637,-5.07954,-0.0395131,0.694561,-0.0617551,-0.0508648,0.0255814,0.0214239,0.00957394,0.00722647,0,0,0,0,0,0,0,0,0,-0.0283995,-0.0410355,0.00517896,0.568467,0.00196571,0.00519218,0.010446,-0.0478559,-0.217221,-0.571021,0.0442102,0.0130176
462,0.000344161,0.103687,-0.0143335,0.176561,0.0682327,0.0682327,0.0682327,0.0682327,0.0682327,0.0682327,0.0682327,0.0682327,0.0682327,0.287551,-0.803961,-0.0317673,0.854429,0.103687,-0.0143335,0.176561,0.0599617,-0.00300166,-0.00908279,0.0558871,-0.00649643,0.0563779,0.0682327,-6.61547,5.51536,-0.754363,-0.62846,-2.98121,-0.437877,-2.09605,-2.63784,-0.344292,-2.29197,0.383779,0.88988,2.93477,-0.0266177,1.02961,0.0599617,-0.00300166,-0.00908279,0.0558871,-0.00649643,0.0563779,0,0,0,0,0,0,0,0,0,-0.0203258,-0.0249151,-0.00345233,0.62309,-0.00283561,-0.00412132,0.00642046,0.0626851,-0.258554,-0.62756,-0.0589123,0.00801129
463,0.000344161,-0.0819609,0.119165,-0.0362799,0.0245851,0.0245851,0.0245851,0.0245851,0.0245851,0.0245851,0.0245851,0.0245851,0.0245851,-0.547681,-0.269302,-0.00151888,0.610312,-0.0819609,0.119165,-0.0362799,0.0298929,0.00642162,0.017441,-0.00729523,-0.122786,0.000581274,0.0245851,-0.00708205,0.165542,0.00436935,-0.0710012,-0.0191726,-0.347311,-2.97762,-0.0644086,0.00358832,-0.0178746,0.580874,3.00199,-0.0302891,-0.0061967,0.011914,0.0298929,0.00642162,0.017441,-0.00729523,-0.122786,0.000581274,0,0,0,0,0,0,0,0,0,-0.000569068,9.84905e-05,0.000203226,0.0145593,-0.000362063,-9.53167e-05,-3.40982e-05,-0.00954275,-0.00176259,-0.017858,0.0141236,-4.36408e-05
464,0.000344161,-0.098875,-0.0152469,0.459871,0.024545,0.024545,0.024545,0.024545,0.024545,0.024545,0.024545,0.024545,0.024545,0.093333,-0.765164,0.075455,0.77452,-0.098875,-0.0152469,0.459871,0.0896928,-0.0413287,-0.0134277,0.0382936,-0.0163338,0.0469937,0.024545,17.2161,5.3047,0.889929,7.86432,-12.5331,-0.212203,-0.0197574,7.32723,0.62,-0.357662,0.214649,-0.255951,-7.49141,0.049471,-0.184163,0.0896928,-0.0413287,-0.0134277,0.0382936,-0.0163338,0.0469937,0,0,0,0,0,0,0,0,0,0.0344126,0.0656898,0.000840542,0.465042,0.00171671,0.00764546,-0.0175476,0.0305398,-0.154362,-0.467299,-0.0285566,-0.0203568
465,0.000344161,-0.0546872,-0.0940706,0.0536678,0.0801145,0.0801145,0.0801145,0.0801145,0.0801145,0.0801145,0.0801145,0.0801145,0.0801145,-0.261377,0.698628,-0.0198855,0.746187,-0.0546872,-0.0940706,0.0536678,0.0226501,-0.0241887,-0.010582,0.0130004,-0.00368369,0.00609994,0.0801145,-2.87663,-4.31853,-0.3357,-1.0697,4.86988,-0.0281798,-6.36235,-0.496662,0.0575741,1.95918,-0.11495,5.95468,-0.795408,-0.00801102,0.354007,0.0226501,-0.0241887,-0.010582,0.0130004,-0.00368369,0.00609994,0,0,0,0,0,0,0,0,0,-0.00443349,-0.0110561,-0.00360953,0.191212,-0.00046041,1.06454e-05,0.00356669,0.00550612,-0.0402068,-0.1916,-0.00669246,0.00320427
466,0.000344161,0.210167,-0.0600376,0.245814,0.0202915,0.0202915,0.0202915,0.0202915,0.0202915,0.0202915,0.0202915,0.0202915,0.0202915,-0.10236,-0.775884,-0.0797085,0.786655,0.210167,-0.0600376,0.245814,0.20583,0.0499818,0.0135975,-0.0359142,0.00793612,0.034029,0.0202915,-15.5454,-18.9031,-0.204287,-2.51734,15.288,0.0593428,-1.38075,3.40497,0.174544,-1.58666,0.0837962,1.27226,4.16404,-0.0295345,-0.137325,0.20583,0.0499818,0.0135975,-0.0359142,0.00793612,0.034029,0,0,0,0,0,0,0,0,0,-0.0247851,-0.0591635,0.00420838,0.303838,-0.00191919,-0.00575143,0.0182275,0.0156106,-0.0791509,-0.303108,-0.0146933,0.0175568
467,0.000344161,0.0212007,0.00268459,-0.0520608,0.045695,0.045695,0.045695,0.045695,0.045695,0.045695,0.045695,0.045695,0.045695,-0.610391,0.338573,0.054305,0.700112,0.0212007,0.00268459,-0.0520608,0.0255125,-0.0674421,0.0388575,0.00904763,0.0576438,0.00515777,0.045695,1.61162,-2.5694,0.953745,3.30026,1.83687,-0.193405,-0.89612,0.711328,0.687154,-0.541689,0.142241,1.30865,-2.76126,0.0583272,-0.36047,0.0255125,-0.0674421,0.0388575,0.00904763,0.0576438,0.00515777,0,0,0,0,0,0,0,0,0,0.000489503,0.00542011,0.00547682,0.0197951,0.00020506,0.00338621,0.000715443,0.00985752,-0.00137024,-0.0213406,-0.00785868,-0.00244814
468,0.000344161,-0.0888615,0.116707,0.419962,0.0516427,0.0516427,0.0516427,0.0516427,0.0516427,0.0516427,0.0516427,0.0516427,0.0516427,0.645351,0.61844,0.0483573,0.895145,-0.0888615,0.116707,0.419962,0.0323317,0.0220036,0.0774994,0.035565,0.00806952,0.0610436,0.0516427,4.58774,-9.81346,-1.60388,3.37446,3.59156,-0.556084,-3.70465,6.31077,0.255079,-3.0515,0.0513266,2.16199,-0.439669,0.0960585,1.1227,0.0323317,0.0220036,0.0774994,0.035565,0.00806952,0.0610436,0,0,0,0,0,0,0,0,0,0.0413657,0.0172529,-0.00987364,0.874717,-0.0041827,-0.0059451,-0.00439426,-0.0751017,-0.545788,-0.879503,0.0756956,-0.00506197
469,0.000344161,0.20677,-0.146247,0.199454,0.0568676,0.0568676,0.0568676,0.0568676,0.0568676,0.0568676,0.0568676,0.0568676,0.0568676,0.344143,0.724448,-0.0387311,0.802969,0.20677,-0.146247,0.199454,-0.0412353,-0.0176921,0.0648422,5.3525e-05,-0.00382614,-0.0137904,0.0568676,-7.73419,12.8268,1.48783,-0.512768,-11.8231,-0.198978,-2.36691,-1.21044,-0.593855,3.87306,-0.333835,1.07732,-3.21405,-0.0342196,1.09013,-0.0412353,-0.0176921,0.0648422,5.3525e-05,-0.00382614,-0.0137904,0,0,0,0,0,0,0,0,0,-0.027211,-0.0291649,0.0102574,0.68245,0.00156799,0.00444405,0.00674319,-0.0513661,-0.30113,-0.683792,0.0479895,0.00947215
470,0.000344161,0.060338,-0.00691533,0.152405,0.04247,0.04247,0.04247,0.04247,0.04247,0.04247,0.04247,0.04247,0.04247,-0.183329,-0.89047,0.05753,0.910965,0.060338,-0.00691533,0.152405,0.0638679,-0.0651471,-0.0113144,0.00558114,0.0150166,0.0193589,0.04247,9.92547,12.9446,0.48861,1.35405,-0.916907,0.703847,-0.40611,-12.088,-0.110407,-1.57512,-0.0273398,0.083459,0.227987,0.0178693,0.170246,0.0638679,-0.0651471,-0.0113144,0.00558114,0.0150166,0.0193589,0,0,0,0,0,0,0,0,0,0.0136279,0.0384985,0.00106723,0.245509,0.00159466,0.0031674,-0.0119723,0.0372821,-0.0539063,-0.238583,-0.0374053,-0.011262
471,0.000344161,0.0906134,-0.0359974,0.228701,0.0222271,0.0222271,0.0222271,0.0222271,0.0222271,0.0222271,0.0222271,0.0222271,0.0222271,-0.309074,0.618728,0.0777729,0.695989,0.0906134,-0.0359974,0.228701,-0.0271729,-0.0535456,0.0782461,0.00410807,0.0285587,0.0147169,0.0222271,8.76892,5.12687,2.42416,11.901,-20.9111,-0.389751,-7.40339,15.6936,0.213382,-21.9586,-0.255103,7.46699,10.0936,0.0231267,-0.292307,-0.0271729,-0.0535456,0.0782461,0.00410807,0.0285587,0.0147169,0,0,0,0,0,0,0,0,0,0.0110973,0.0333275,0.0222195,0.155347,0.0010646,0.00148671,-0.00929379,0.0213,-0.0310286,-0.158462,-0.0235654,-0.010192
472,0.000344161,-0.10075,0.013621,0.144228,0.056126,0.056126,0.056126,0.056126,0.056126,0.056126,0.056126,0.056126,0.056126,-0.164875,-0.778777,0.043874,0.797246,-0.10075,0.013621,0.144228,0.0478257,-0.028382,0.019268,0.0175034,0.00212944,0.0111804,0.056126,7.77193,10.7549,-0.0239039,0.909365,-6.97318,0.341104,-2.24726,-3.68101,-0.147231,0.462332,0.0778045,1.77534,-1.38532,0.0182575,0.327695,0.0478257,-0.028382,0.019268,0.0175034,0.00212944,0.0111804,0,0,0,0,0,0,0,0,0,0.0108101,0.0301917,-0.00207887,0.259268,7.00112e-05,0.00155601,-0.00955572,0.0140453,-0.0612041,-0.255665,-0.0132459,-0.00875989
473,0.000344161,-0.0405576,0.0360203,0.0124742,0.0230851,0.0230851,0.0230851,0.0230851,0.0230851,0.0230851,0.0230851,0.0230851,0.0230851,-0.585595,0.133815,0.0602301,0.603702,-0.0405576,0.0360203,0.0124742,0.0405185,-0.0613786,0.0329421,-0.096238,0.0798245,0.018979,0.0230851,0.112229,-4.08601,0.266123,-3.64039,3.08939,-0.0743128,0.638553,1.03718,0.731826,1.16183,-0.12802,-0.544954,2.44254,-0.0042473,-0.106074,0.0405185,-0.0613786,0.0329421,-0.096238,0.0798245,0.018979,0,0,0,0,0,0,0,0,0,-0.000290714,-0.000162881,0.00233067,0.00470525,-9.23518e-05,-0.000283228,0.00225133,0.00449075,-0.000192702,-0.00511896,-0.00497271,-0.000852958
474,0.000344161,-0.152969,0.00516987,0.0978619,0.0307351,0.0307351,0.0307351,0.0307351,0.0307351,0.0307351,0.0307351,0.0307351,0.0307351,-0.480038,-0.730568,0.0692649,0.876906,-0.152969,0.00516987,0.0978619,0.000420928,-0.0095901,0.0240269,0.053612,0.015337,0.00324941,0.0307351,6.98978,12.2825,-0.244212,-2.33929,-6.79481,0.235113,0.399049,-5.33476,-0.0114382,-0.290758,-0.101205,-0.572993,2.62488,0.00612701,0.0760822,0.000420928,-0.0095901,0.0240269,0.053612,0.015337,0.00324941,0,0,0,0,0,0,0,0,0,0.00556782,0.0268259,-0.00160345,0.0878268,-0.000180343,-0.000934572,-0.00791423,0.00403142,-0.0108654,-0.0852354,-0.00489009,-0.00807822
475,0.000344161,-0.765196,-0.125056,3.18364,0.00350718,0.00350718,0.00350718,0.00350718,0.00350718,0.00350718,0.00350718,0.00350718,0.00350718,0.474795,0.919839,-0.0964928,1.03964,-0.765196,-0.125056,3.18364,-0.872629,0.110831,-0.0187759,0.0378811,0.0395899,0.128623,0.00350718,-14.9675,26.0943,1.10365,-1.62399,-10.9344,-0.0483346,-0.154651,-14.3947,-0.0462183,2.20476,-0.00066524,0.0767712,-0.455713,-0.0276347,-3.10576,-0.872629,0.110831,-0.0187759,0.0378811,0.0395899,0.128623,0,0,0,0,0,0,0,0,0,-0.0730126,-0.0610305,0.00512729,0.751753,0.00924247,0.00701753,0.0181285,-0.0999689,-0.381252,-0.752424,0.100358,0.0186751
476,0.000344161,0.0445814,-0.0277625,0.282587,0.080415,0.080415,0.080415,0.080415,0.080415,0.080415,0.080415,0.080415,0.080415,0.759203,0.695462,-0.019585,1.02978,0.0445814,-0.0277625,0.282587,0.0488489,-0.0781999,0.021553,0.0380187,-0.0110617,0.0482047,0.080415,-1.46586,6.62407,0.52336,-0.763254,-1.4288,-1.14123,-1.50334,-5.23984,0.0382678,-0.348644,0.30147,-0.888103,1.13966,-0.0221462,2.10886,0.0488489,-0.0781999,0.021553,0.0380187,-0.0110617,0.0482047,0,0,0,0,0,0,0,0,0,-0.018484,-0.00556813,0.0027661,0.899074,0.00130518,0.0016855,0.00189835,-0.0957292,-0.640932,-0.910271,0.0986332,0.00164721
477,0.000344161,-0.0402164,0.0586147,0.370829,0.00890531,0.00890531,0.00890531,0.00890531,0.00890531,0.00890531,0.00890531,0.00890531,0.00890531,-0.236212,0.90151,-0.0910947,0.936384,-0.0402164,0.0586147,0.370829,0.142425,-0.124083,-0.0470676,-0.0495346,-0.00388741,-0.0751967,0.00890531,-14.9046,-21.2228,0.748426,1.73105,0.0891944,0.187822,-0.134512,21.1738,0.19478,-3.32637,0.0175988,-0.0318218,1.53671,-0.0186628,-0.204495,0.142425,-0.124083,-0.0470676,-0.0495346,-0.00388741,-0.0751967,0,0,0,0,0,0,0,0,0,-0.0200827,-0.0568369,0.00127191,0.207242,0.00285201,0.00497152,0.0177002,-0.0354549,-0.042883,-0.205835,0.035592,0.0165047
478,0.000344161,1.43548,-3.28505,5.95878,0.000959077,0.000959077,0.000959077,0.000959077,0.000959077,0.000959077,0.000959077,0.000959077,0.000959077,0.928001,-0.21749,-0.0990409,0.958278,1.43548,-3.28505,5.95878,-0.240521,-0.585791,0.0274658,0.786432,-0.0602865,-0.130533,0.000959077,-1.20556,2.46453,-1.43746,5.481,4.01761,-0.0134589,0.0543387,-7.91762,4.43658,8.3653,-0.00774641,0.0389287,-10.5612,-0.0472293,-6.05205,-0.240521,-0.585791,0.0274658,0.786432,-0.0602865,-0.130533,0,0,0,0,0,0,0,0,0,-0.100562,-0.0113833,-0.0164905,1.01113,-0.00640737,-0.00374203,0.0219622,0.0591004,-0.842782,-1.01099,-0.0597808,-0.0050417
479,0.000344161,-0.0392588,-0.013245,0.0551883,0.0677568,0.0677568,0.0677568,0.0677568,0.0677568,0.0677568,0.0677568,0.0677568,0.0677568,-0.411201,0.669979,-0.0322432,0.786764,-0.0392588,-0.013245,0.0551883,-0.0123041,-0.012515,0.0248232,0.0136188,0.0127399,-0.00214231,0.0677568,-3.50936,-5.5808,-0.448381,-1.79287,4.34743,0.230004,-0.867569,1.27263,0.0864657,0.555709,0.186144,0.6508,1.2504,-0.00159425,0.16158,-0.0123041,-0.012515,0.0248232,0.0136188,0.0127399,-0.00214231,0,0,0,0,0,0,0,0,0,-0.00431304,-0.013656,-0.00329014,0.11447,-0.000566596,-0.00131882,0.00445271,0.00681313,-0.017677,-0.111922,-0.00482429,0.0039336
480,0.000344161,0.0726953,-0.108395,0.480704,0.0743663,0.0743663,0.0743663,0.0743663,0.0743663,0.0743663,0.0743663,0.0743663,0.0743663,0.925634,-0.353198,-0.0179201,0.990892,0.0726953,-0.108395,0.480704,0.0616881,-0.0218543,0.0242615,-0.0795206,0.0593081,0.130945,0.0743663,-0.159718,5.27722,-0.383719,5.01473,-0.164517,-1.04016,-4.2163,-5.1854,0.931495,2.53278,-1.2097,0.919847,-7.43912,0.0212059,2.81575,0.0616881,-0.0218543,0.0242615,-0.0795206,0.0593081,0.130945,0,0,0,0,0,0,0,0,0,-0.0182643,-0.00153564,-0.00403979,0.980689,-0.0024637,-1.59369e-05,0.00321438,0.076127,-0.830501,-0.990848,-0.0876309,-0.000284739
481,0.000344161,0.754284,0.00382996,0.859406,0.00545185,0.00545185,0.00545185,0.00545185,0.00545185,0.00545185,0.00545185,0.00545185,0.00545185,-0.185457,0.651571,-0.0945482,0.684017,0.754284,0.00382996,0.859406,-0.261385,0.321952,-0.296686,0.230085,-0.165074,-0.0301948,0.00545185,-13.6333,-7.47346,-4.19798,-24.3549,57.6628,-0.276788,-2.69663,-50.9437,-1.36686,51.7521,-0.152309,2.77995,-27.4009,-0.0197746,-0.942728,-0.261385,0.321952,-0.296686,0.230085,-0.165074,-0.0301948,0,0,0,0,0,0,0,0,0,-0.0217976,-0.0520717,-0.0422221,0.23757,-0.00164855,0.00346186,0.0117177,0.0201673,-0.056678,-0.243305,-0.0233411,0.0171518
482,0.000344161,-0.0598541,-0.0387592,0.0524591,0.0239162,0.0239162,0.0239162,0.0239162,0.0239162,0.0239162,0.0239162,0.0239162,0.0239162,-0.577186,-0.976084,0.00374259,1.13397,-0.0598541,-0.0387592,0.0524591,0.0833165,0.00225986,0.106619,0.00325517,0.0164683,0.0159347,0.0239162,0.193607,1.03345,0.00320426,-0.0695175,0.188106,1.70127,-1.36543,-1.16171,-0.00157958,-0.0208994,0.0353756,0.954645,0.129176,-0.0110749,0.358328,0.0833165,0.00225986,0.106619,0.00325517,0.0164683,0.0159347,0,0,0,0,0,0,0,0,0,-0.000412457,0.00105755,-9.30889e-05,0.0555975,-0.000311935,0.00014773,-0.00031869,0.0251154,-0.000699833,-0.0375186,-0.024597,-0.000302769
483,0.000344161,0.297848,-0.0329733,0.432693,0.00862304,0.00862304,0.00862304,0.00862304,0.00862304,0.00862304,0.00862304,0.00862304,0.00862304,-0.250557,0.67132,-0.091377,0.722357,0.297848,-0.0329733,0.432693,-0.0376801,0.10621,0.048708,0.0149274,-0.00123322,-0.00480413,0.00862304,-13.0846,-18.4042,-2.10755,-9.1892,28.9055,-0.101306,-2.03276,-10.7992,0.311405,16.5559,-0.0667347,2.2499,-7.33369,-0.0168465,-0.649837,-0.0376801,0.10621,0.048708,0.0149274,-0.00123322,-0.00480413,0,0,0,0,0,0,0,0,0,-0.0183058,-0.050822,-0.019622,0.197989,-0.00140029,-0.000391453,0.0164212,0.0140214,-0.0426662,-0.198515,-0.0147011,0.0146813
484,0.000344161,-0.0363426,-0.0213506,0.452416,0.0368391,0.0368391,0.0368391,0.0368391,0.0368391,0.0368391,0.0368391,0.0368391,0.0368391,0.387191,0.866447,0.0631609,0.951124,-0.0363426,-0.0213506,0.452416,-0.0194755,0.00609481,0.00704193,-0.00786602,-0.0140104,0.0243025,0.0368391,11.6192,-14.1845,-1.16705,0.615739,5.93181,-0.385747,-1.45699,8.28904,0.26166,-3.27392,-0.118636,0.700337,2.67953,0.0706294,0.304236,-0.0194755,0.00609481,0.00704193,-0.00786602,-0.0140104,0.0243025,0,0,0,0,0,0,0,0,0,0.0430024,0.044212,-0.00539436,0.694362,-0.00569247,-0.00621524,-0.0125177,-0.0826302,-0.321965,-0.698149,0.0813037,-0.013312
485,0.000344161,0.470509,-0.713173,1.3112,0.00229373,0.00229373,0.00229373,0.00229373,0.00229373,0.00229373,0.00229373,0.00229373,0.00229373,-0.280546,0.669497,-0.0977063,0.732447,0.470509,-0.713173,1.3112,-0.301704,0.11166,0.0269928,0.028368,-0.0156862,-0.022984,0.00229373,-13.1621,-17.9952,-2.03007,-7.48613,24.3654,-0.0137662,-0.383266,-6.8407,0.547198,12.0243,-0.00880668,0.422171,-3.82504,-0.0101453,-1.3501,-0.301704,0.11166,0.0269928,0.028368,-0.0156862,-0.022984,0,0,0,0,0,0,0,0,0,-0.0179198,-0.0524097,-0.0172165,0.180064,-0.00148322,-0.00196758,0.0177871,0.0133412,-0.037062,-0.179932,-0.0135861,0.0147436
486,0.000344161,0.775574,-0.632166,1.78417,0.019692,0.019692,0.019692,0.019692,0.019692,0.019692,0.019692,0.019692,0.019692,0.943887,0.63522,-0.080308,1.14056,0.775574,-0.632166,1.78417,0.335197,0.179969,-0.0275116,-0.0336039,0.0592794,-0.0166442,0.019692,-1.41245,24.2833,0.998425,-11.4069,-2.47881,-0.395928,-1.04588,-22.5801,1.15366,-4.63076,0.277491,-0.68799,16.6698,-0.0924859,-0.0502941,0.335197,0.179969,-0.0275116,-0.0336039,0.0592794,-0.0166442,0,0,0,0,0,0,0,0,0,-0.0764218,-0.00530975,0.0110603,0.946471,0.00795696,0.000723686,0.00567683,-0.112669,-0.819918,-0.950706,0.116037,-0.000469121
487,0.000344161,-0.756638,0.296077,2.23532,0.0195126,0.0195126,0.0195126,0.0195126,0.0195126,0.0195126,0.0195126,0.0195126,0.0195126,0.843959,-0.0851867,0.0804874,0.852057,-0.756638,0.296077,2.23532,-0.0620379,-0.0190842,0.0433197,0.316932,0.0304357,-0.00841928,0.0195126,0.0549336,4.81747,0.0705506,20.5181,-3.39239,-0.0207265,0.588817,-0.668441,-5.2357,-10.6613,0.22604,-1.26352,-10.1529,0.195442,-1.56061,-0.0620379,-0.0190842,0.0433197,0.316932,0.0304357,-0.00841928,0,0,0,0,0,0,0,0,0,0.0807634,0.00543239,0.00578931,1.01599,0.000917776,-0.00527465,-0.0191259,0.0214997,-0.762827,-1.01577,-0.0189349,0.00640302
488,0.000344161,-0.0128827,-0.034909,-0.0182232,0.0189381,0.0189381,0.0189381,0.0189381,0.0189381,0.0189381,0.0189381,0.0189381,0.0189381,-0.579334,-0.357076,-0.0810619,0.685348,-0.0128827,-0.034909,-0.0182232,0.00652665,0.0264798,0.0482447,-0.0623235,-0.0637159,0.0369614,0.0189381,-2.55311,9.61924,1.60692,3.87737,-3.27396,-0.0945809,-0.51805,-6.3324,-0.946036,-2.88089,-0.0301404,1.04268,-0.961571,-0.00705015,-0.506411,0.00652665,0.0264798,0.0482447,-0.0623235,-0.0637159,0.0369614,0,0,0,0,0,0,0,0,0,-0.00256664,-0.00866558,0.0104947,0.0266143,0.000618374,0.0058393,-0.000974451,-0.0125017,-0.00232578,-0.0270777,0.0115631,0.0042169
489,0.000344161,-0.0526581,0.0126685,0.190874,0.0314518,0.0314518,0.0314518,0.0314518,0.0314518,0.0314518,0.0314518,0.0314518,0.0314518,-0.222156,-0.803184,0.0685482,0.836156,-0.0526581,0.0126685,0.190874,0.0397899,-0.0659326,0.0216942,0.0192027,-0.00168145,0.0157862,0.0314518,11.2393,17.0704,0.162979,1.47163,-7.66999,0.364026,-0.60329,-9.34775,-0.342668,-2.0026,-0.0356415,0.325495,0.518305,0.0194884,0.0869215,0.0397899,-0.0659326,0.0216942,0.0192027,-0.00168145,0.0157862,0,0,0,0,0,0,0,0,0,0.0146364,0.0437136,-0.000910522,0.220453,0.000645956,0.00188099,-0.0142991,0.0170931,-0.047585,-0.216596,-0.0174663,-0.0125054
490,0.000344161,0.0627675,0.0260895,0.184797,0.0832905,0.0832905,0.0832905,0.0832905,0.0832905,0.0832905,0.0832905,0.0832905,0.0832905,0.438636,0.894234,-0.0167095,0.99616,0.0627675,0.0260895,0.184797,-0.0201536,-0.0168122,0.001091,0.0121976,-0.00329304,0.0267694,0.0832905,-2.90569,3.93147,0.243832,-0.180931,-1.86909,-0.687973,-2.15978,-2.12515,-0.0357192,0.600665,-0.106008,0.849707,-0.445823,-0.00595404,1.12528,-0.0201536,-0.0168122,0.001091,0.0121976,-0.00329304,0.0267694,0,0,0,0,0,0,0,0,0,-0.0128896,-0.0112501,0.00115089,0.725196,0.00109935,0.00111931,0.00326149,-0.0931012,-0.35599,-0.732065,0.0920082,0.00348318
491,0.000344161,-0.168048,0.0107937,1.07473,0.0277848,0.0277848,0.0277848,0.0277848,0.0277848,0.0277848,0.0277848,0.0277848,0.0277848,0.816232,0.277454,0.0722152,0.865119,-0.168048,0.0107937,1.07473,-0.0824138,0.0933274,0.0455093,0.0711241,-0.0204535,0.0275388,0.0277848,1.15957,12.5338,-1.18407,-17.3404,-12.0443,-0.0193038,-5.99506,-0.321537,-1.83777,6.47336,-0.264465,5.25667,10.8562,0.196135,-0.33634,-0.0824138,0.0933274,0.0455093,0.0711241,-0.0204535,0.0275388,0,0,0,0,0,0,0,0,0,0.0700573,0.00592325,-0.0137878,0.984844,-0.00495584,0.0028804,-0.00829575,-0.0567181,-0.728409,-0.984582,0.053869,0.00165585
492,0.000344161,-0.00746049,-0.00312348,-0.0842583,0.0385018,0.0385018,0.0385018,0.0385018,0.0385018,0.0385018,0.0385018,0.0385018,0.0385018,-0.639001,-0.0169964,0.0614982,0.642179,-0.00746049,-0.00312348,-0.0842583,0.0425412,0.00155898,0.0247485,-0.0331,-0.00962657,0.0362017,0.0385018,0.14614,-2.66879,-0.0331832,-0.12559,2.4486,-0.050559,-0.181999,0.227643,0.525102,-0.0788707,0.00211448,0.217936,0.207584,0.0186403,0.0483217,0.0425412,0.00155898,0.0247485,-0.0331,-0.00962657,0.0362017,0,0,0,0,0,0,0,0,0,-0.000415273,9.47214e-05,-0.000233397,0.00215971,-0.000369066,-8.28453e-05,0.00161133,-0.000330497,0.000255384,-0.00241781,0.000255376,-0.000574472
493,0.000344161,-0.0860304,-0.0148505,0.0716025,0.0631329,0.0631329,0.0631329,0.0631329,0.0631329,0.0631329,0.0631329,0.0631329,0.0631329,-0.229536,-0.675778,-0.00264263,0.713701,-0.0860304,-0.0148505,0.0716025,0.0824578,-0.0178401,0.0655823,0.0389763,-0.0299466,0.023777,0.0631329,-0.384597,-0.433084,0.0635286,0.283321,0.828583,-0.843267,-14.388,-0.309469,-0.000737727,-0.284951,0.521475,13.5121,0.0164806,0.00164662,0.804252,0.0824578,-0.0178401,0.0655823,0.0389763,-0.0299466,0.023777,0,0,0,0,0,0,0,0,0,-0.00108701,-0.00123553,0.0010194,0.202461,-0.000497708,-0.000562515,0.000466359,-0.00779037,-0.0459636,-0.210238,0.0127057,0.000402284
494,0.000344161,0.0392952,-0.159358,0.376009,0.046813,0.046813,0.046813,0.046813,0.046813,0.046813,0.046813,0.046813,0.046813,0.60803,-0.570942,-0.053187,0.835766,0.0392952,-0.159358,0.376009,0.138769,0.0314745,0.0663376,0.00511628,-0.0150352,0.0560999,0.046813,-4.77898,2.08379,-2.30938,9.17087,-5.89204,0.143485,-11.5954,3.76895,-1.06937,-15.3316,0.358005,10.2702,6.32013,-0.0726641,0.94923,0.138769,0.0314745,0.0663376,0.00511628,-0.0150352,0.0560999,0,0,0,0,0,0,0,0,0,-0.0469369,-0.0165998,-0.0177047,0.871832,-0.00482631,-0.00507439,0.00127989,0.0699498,-0.5154,-0.869734,-0.0665201,0.00651837
495,0.000344161,-0.0404086,-0.0902705,0.487694,0.0642444,0.0642444,0.0642444,0.0642444,0.0642444,0.0642444,0.0642444,0.0642444,0.0642444,0.834881,0.426333,-0.0357556,0.938118,-0.0404086,-0.0902705,0.487694,0.114038,-0.119566,0.0278244,-0.00944909,-0.0380249,0.0491812,0.0642444,-1.29524,6.62228,1.07853,-0.859027,0.657933,-0.688654,-4.56458,-7.2398,0.751871,-2.74699,0.437183,1.9204,3.69629,-0.0703556,2.15649,0.114038,-0.119566,0.0278244,-0.00944909,-0.0380249,0.0491812,0,0,0,0,0,0,0,0,0,-0.0352678,-0.00537528,0.00709814,0.958759,0.00214155,0.00249153,0.00424282,-0.0777259,-0.736408,-0.965368,0.0817175,0.000424841
496,0.000344161,0.00723743,-0.0748377,0.527166,0.0475206,0.0475206,0.0475206,0.0475206,0.0475206,0.0475206,0.0475206,0.0475206,0.0475206,0.730772,-0.666678,-0.0524794,0.990577,0.00723743,-0.0748377,0.527166,0.111266,0.0332876,-0.010231,0.0275439,-0.00470257,0.0679017,0.0475206,-4.35016,15.2333,-1.41738,1.92419,-3.37783,-0.782654,-1.05896,-11.8627,0.0354608,0.581392,-0.211057,-0.395041,-2.43074,-0.0756276,0.926837,0.111266,0.0332876,-0.010231,0.0275439,-0.00470257,0.0679017,0,0,0,0,0,0,0,0,0,-0.0474384,-0.0163672,-0.00738545,0.895068,-0.00598919,-0.00645549,0.00514227,0.0934966,-0.616436,-0.902996,-0.0956542,0.00478861
497,0.000344161,-0.714903,-0.00963056,0.753997,0.00168865,0.00168865,0.00168865,0.00168865,0.00168865,0.00168865,0.00168865,0.00168865,0.00168865,-0.381311,0.998311,0.09609,1.07297,-0.714903,-0.00963056,0.753997,-0.332219,-0.143571,0.116404,0.102496,0.106935,0.0478129,0.00168865,12.7358,21.7329,-0.0164152,0.0227516,10.602,0.11588,-0.0265471,-31.62,-0.00477023,0.500594,0.00117533,-0.135336,-0.513715,0.00540033,-0.592114,-0.332219,-0.143571,0.116404,0.102496,0.106935,0.0478129,0,0,0,0,0,0,0,0,0,0.0121198,0.0475318,0.00558978,0.121766,-0.00439882,-0.00718964,-0.0139973,-0.0414331,-0.0157186,-0.119443,0.0425142,-0.0142199
498,0.000344161,0.148933,0.358915,1.19469,0.0185385,0.0185385,0.0185385,0.0185385,0.0185385,0.0185385,0.0185385,0.0185385,0.0185385,0.874175,0.911205,0.0814615,1.26535,0.148933,0.358915,1.19469,0.0754791,-0.081765,-0.0472031,0.0801404,-0.00907421,0.0467165,0.0185385,3.17665,-26.5791,-0.42279,2.09725,4.62368,-0.411736,0.266308,21.8065,-0.0744853,0.9752,0.0758436,-0.391916,-3.43137,0.139864,-1.06908,0.0754791,-0.081765,-0.0472031,0.0801404,-0.00907421,0.0467165,0,0,0,0,0,0,0,0,0,0.0732571,0.0122864,-0.00296689,0.91466,-0.0103193,-0.00207866,-0.00394599,-0.11996,-0.722271,-0.91925,0.120627,-0.00304137
499,0.000344161,-0.921257,-0.445763,4.35236,0.00389408,0.00389408,0.00389408,0.00389408,0.00389408,0.00389408,0.00389408,0.00389408,0.00389408,0.457052,-0.68785,0.0961059,0.831427,-0.921257,-0.445763,4.35236,-0.273626,-0.633443,-0.0890274,-0.10079,-0.0174222,0.102357,0.00389408,15.7575,-30.7261,4.30851,-8.17309,26.1655,-0.0311199,-0.423713,5.48187,1.42051,15.8015,0.0231772,0.40147,-7.18265,0.0682676,-4.33012,-0.273626,-0.633443,-0.0890274,-0.10079,-0.0174222,0.102357,0,0,0,0,0,0,0,0,0,0.0730804,0.0578339,0.0251184,0.764838,0.00503453,0.0116322,-0.0129871,0.0598174,-0.384706,-0.766039,-0.0597599,-0.0187326
500,0.000344161,-0.0871439,0.00704783,0.0967474,0.0539379,0.0539379,0.0539379,0.0539379,0.0539379,0.0539379,0.0539379,0.0539379,0.0539379,-0.309696,0.946062,-0.0425135,0.99637,-0.0871439,0.00704783,0.0967474,-0.0302374,-0.055055,-0.0382519,-0.000703454,0.0106728,-0.00585341,0.0539379,-6.14652,-9.59314,0.221936,0.248483,-2.29113,1.19028,0.411465,11.9714,0.0221996,-0.780964,0.0480505,-0.714581,0.525433,-0.00433391,0.206369,-0.0302374,-0.055055,-0.0382519,-0.000703454,0.0106728,-0.00585341,0,0,0,0,0,0,0,0,0,-0.00798475,-0.0237698,-0.000914101,0.170875,0.00130572,0.00258291,0.00722146,-0.0388511,-0.0272514,-0.159355,0.0394383,0.00706304
501,0.000344161,0.0217936,-0.00981402,0.329192,0.074084,0.074084,0.074084,0.074084,0.074084,0.074084,0.074084,0.074084,0.074084,0.897476,-0.11465,-0.025916,0.905141,0.0217936,-0.00981402,0.329192,0.101348,0.0466698,-0.00548553,-0.122212,-0.0158427,0.127341,0.074084,-0.10297,-0.472308,-0.346818,-1.018,2.5884,-0.215744,-6.12652,-2.13788,1.88692,2.96742,-0.180695,2.37085,-1.93961,-0.0247327,3.42648,0.101348,0.0466698,-0.00548553,-0.122212,-0.0158427,0.127341,0,0,0,0,0,0,0,0,0,-0.0272866,-0.00216083,-0.00395758,1.01655,-0.00175076,0.000956096,0.0066708,0.0293293,-0.816757,-1.01876,-0.0312947,-0.00163968
502,0.000344161,0.0556326,-0.0305667,0.512508,0.0333873,0.0333873,0.0333873,0.0333873,0.0333873,0.0333873,0.0333873,0.0333873,0.0333873,0.442192,0.714879,-0.0666127,0.843222,0.0556326,-0.0305667,0.512508,0.0403609,-0.0470639,0.0529175,0.0348179,-0.0202417,0.00298929,0.0333873,-11.2352,20.8765,2.40362,-4.0548,-14.2797,-0.299436,-2.34454,-6.65242,-0.789281,7.36475,-0.117802,1.38057,-3.27939,-0.0558732,0.451461,0.0403609,-0.0470639,0.0529175,0.0348179,-0.0202417,0.00298929,0,0,0,0,0,0,0,0,0,-0.0509107,-0.0421254,0.0158231,0.752647,0.00364889,0.00774246,0.0100763,-0.0609765,-0.372595,-0.755112,0.059596,0.0135842
503,0.000344161,-0.237451,-0.0841632,1.29454,0.0224362,0.0224362,0.0224362,0.0224362,0.0224362,0.0224362,0.0224362,0.0224362,0.0224362,0.842705,-0.082548,0.061998,0.849005,-0.237451,-0.0841632,1.29454,-0.0378094,-0.0717277,0.0556946,0.239712,-0.01596,0.0230395,0.0224362,0.00367475,2.13178,-0.00568113,16.3782,-1.90285,-0.0179098,0.338503,0.00852854,-4.06178,-9.35767,0.395255,-2.69965,-6.93638,0.195711,1.06661,-0.0378094,-0.0717277,0.0556946,0.239712,-0.01596,0.0230395,0,0,0,0,0,0,0,0,0,0.0619866,0.00402639,0.00401723,1.0158,0.000473855,-0.00479132,-0.0149133,0.0223227,-0.761711,-1.01543,-0.0185297,0.00529082
504,0.000344161,-0.175433,0.0466433,0.409671,0.0208536,0.0208536,0.0208536,0.0208536,0.0208536,0.0208536,0.0208536,0.0208536,0.0208536,0.0472428,-0.716648,0.0363305,0.719121,-0.175433,0.0466433,0.409671,0.0558842,-0.0931211,0.0860176,0.0232195,0.0355456,0.0410903,0.0208536,8.63077,10.2828,-0.512542,6.49323,-22.2137,-1.57553,2.10042,12.1064,0.226083,-4.01042,0.36107,-3.35044,-2.52945,0.0416277,0.840352,0.0558842,-0.0931211,0.0860176,0.0232195,0.0355456,0.0410903,0,0,0,0,0,0,0,0,0,0.0145951,0.0330271,-0.00878724,0.417327,-8.77175e-05,0.00273061,-0.00915965,0.0156571,-0.134014,-0.432222,-0.0116909,-0.00999257
505,0.000344161,-0.0160055,-0.0320314,0.0748605,0.0693946,0.0693946,0.0693946,0.0693946,0.0693946,0.0693946,0.0693946,0.0693946,0.0693946,-0.608324,-0.851626,-0.0306054,1.04703,-0.0160055,-0.0320314,0.0748605,-0.0109731,-0.00675191,0.00855541,-0.00884843,0.0237824,0.00901765,0.0693946,-2.5128,-7.1245,-0.193656,0.276056,1.1459,0.663076,-0.363263,5.99461,-0.126239,-1.19892,0.0810498,-0.530244,0.954896,-0.0674882,0.818647,-0.0109731,-0.00675191,0.00855541,-0.00884843,0.0237824,0.00901765,0,0,0,0,0,0,0,0,0,-0.00195161,-0.00948347,-0.000320107,0.0437105,-0.000757912,-0.00168397,0.00245994,0.0119492,-0.00173051,-0.0369942,-0.0109009,0.00284303
506,0.000344161,-0.110585,0.0648226,0.488872,0.0450488,0.0450488,0.0450488,0.0450488,0.0450488,0.0450488,0.0450488,0.0450488,0.0450488,0.759092,-0.819441,-0.0549512,1.11836,-0.110585,0.0648226,0.488872,0.142231,-0.00703174,0.00641632,-0.0130159,0.00830078,0.085058,0.0450488,-4.41367,18.6838,-0.847959,1.50368,-4.05139,-0.868358,-0.593787,-14.5219,0.00769714,0.211204,-0.126054,-0.712165,-1.7797,-0.0723641,0.817081,0.142231,-0.00703174,0.00641632,-0.0130159,0.00830078,0.085058,0,0,0,0,0,0,0,0,0,-0.0492337,-0.0164371,-0.00414092,0.887893,-0.00716941,-0.00440898,0.00489348,0.110586,-0.626029,-0.896512,-0.111763,0.00498354
507,0.000344161,0.00736141,-0.0289402,0.0419452,0.0541633,0.0541633,0.0541633,0.0541633,0.0541633,0.0541633,0.0541633,0.0541633,0.0541633,-0.647456,0.389091,-0.0458367,0.756765,0.00736141,-0.0289402,0.0419452,-0.00966486,0.0214904,0.0166271,-0.0062212,-0.00134996,-0.0220855,0.0541633,-1.76043,-4.27366,-0.697345,-4.20261,0.162956,-0.117205,-3.14657,4.10335,-0.544358,-0.235733,0.304305,0.534297,4.46728,-0.18938,2.57033,-0.00966486,0.0214904,0.0166271,-0.0062212,-0.00134996,-0.0220855,0,0,0,0,0,0,0,0,0,-0.00146712,-0.00592879,-0.0035898,0.0193271,-0.000690738,-0.00316874,0.000168805,0.00724405,-0.000868648,-0.0203329,-0.0042145,0.00186438
508,0.000344161,-0.0819607,-0.0136097,0.0899614,0.0229233,0.0229233,0.0229233,0.0229233,0.0229233,0.0229233,0.0229233,0.0229233,0.0229233,-0.278072,0.977077,0.0622596,1.01778,-0.0819607,-0.0136097,0.0899614,-0.0393527,0.0159189,0.0738544,0.0286087,0.00347519,0.0213916,0.0229233,9.52468,14.3467,-0.180086,-0.218714,7.56449,1.05201,0.402099,-21.8293,-0.00559843,0.556671,0.0206132,-0.518662,-0.324347,0.013706,0.0266023,-0.0393527,0.0159189,0.0738544,0.0286087,0.00347519,0.0213916,0,0,0,0,0,0,0,0,0,0.0112024,0.036415,0.00290938,0.186706,-0.00322832,-0.00455106,-0.0108966,-0.0465762,-0.0313805,-0.175447,0.0468171,-0.0108362
509,0.000344161,-0.122609,0.0574243,0.731433,0.00911691,0.00911691,0.00911691,0.00911691,0.00911691,0.00911691,0.00911691,0.00911691,0.00911691,0.10633,0.708871,0.00124496,0.716803,-0.122609,0.0574243,0.731433,-0.191481,-0.0405729,0.14687,-0.0139482,-0.100804,-0.00572345,0.00911691,0.398368,0.751162,0.00490563,-0.408921,-0.47992,-1.61953,8.47926,-0.148633,0.00279589,0.288749,-0.167665,-10.8643,0.0627483,0.000367295,1.65362,-0.191481,-0.0405729,0.14687,-0.0139482,-0.100804,-0.00572345,0,0,0,0,0,0,0,0,0,-9.88655e-05,0.000814766,-8.38325e-05,0.471383,-0.000404933,-0.00027284,-0.000275429,-0.0179055,-0.161786,-0.486109,0.0152209,-0.000246448
510,0.000344161,-0.0163231,-0.068182,0.786611,0.0445708,0.0445708,0.0445708,0.0445708,0.0445708,0.0445708,0.0445708,0.0445708,0.0445708,0.831207,0.393615,0.0554292,0.921363,-0.0163231,-0.068182,0.786611,-0.0174578,0.0807021,0.0424957,0.169807,-0.0592799,0.0492811,0.0445708,1.78753,-5.96381,-1.5139,-0.194663,-2.07087,-0.48259,-4.3008,8.051,-1.16673,3.73863,0.317996,2.42982,-3.47579,0.169583,1.08437,-0.0174578,0.0807021,0.0424957,0.169807,-0.0592799,0.0492811,0,0,0,0,0,0,0,0,0,0.0524105,0.00770575,-0.00994297,0.964897,-0.00471562,-0.00438902,-0.00612926,-0.0737817,-0.735427,-0.969298,0.0763689,-5.03114e-05
511,0.000344161,0.0922928,0.0243397,0.254154,0.0603035,0.0603035,0.0603035,0.0603035,0.0603035,0.0603035,0.0603035,0.0603035,0.0603035,0.359885,0.777829,0.0396965,0.857969,0.0922928,0.0243397,0.254154,0.0567818,-0.00503975,0.0151749,-0.0293568,-0.0129566,0.0365398,0.0603035,7.50739,-10.1639,-1.06928,0.221965,5.14715,-0.516012,-1.84278,4.92448,0.41775,-2.76772,-0.272753,0.70413,2.52142,0.0609569,0.884495,0.0567818,-0.00503975,0.0151749,-0.0293568,-0.0129566,0.0365398,0,0,0,0,0,0,0,0,0,0.0263617,0.0285323,-0.00608378,0.683804,-0.00295599,-0.00465941,-0.00734657,-0.0630745,-0.309039,-0.688812,0.0602174,-0.00880105
512,0.000344161,0.0575119,-0.0489762,0.117757,0.095249,0.095249,0.095249,0.095249,0.095249,0.095249,0.095249,0.095249,0.095249,0.281644,0.800953,-0.004751,0.849042,0.0575119,-0.0489762,0.117757,-0.0295554,-0.0258339,0.0284081,0.00384611,-0.00658417,0.0144927,0.095249,-1.02874,0.79204,0.116731,0.190178,-0.507709,-0.474782,-2.199,-0.341843,-0.0599577,0.37605,-0.424305,0.896234,-0.517251,0.00787596,1.18501,-0.0295554,-0.0258339,0.0284081,0.00384611,-0.00658417,0.0144927,0,0,0,0,0,0,0,0,0,-0.0036865,-0.00403142,0.000702137,0.620506,-0.000134194,0.000206836,0.000979483,-0.0594601,-0.256105,-0.624969,0.0551512,0.00137188
513,0.000344161,-0.27797,0.185122,2.07797,0.00593051,0.00593051,0.00593051,0.00593051,0.00593051,0.00593051,0.00593051,0.00593051,0.00593051,0.260768,0.859655,0.0940695,0.903247,-0.27797,0.185122,2.07797,-0.205612,0.0309877,0.0732765,0.0524445,-0.0231838,0.0212641,0.00593051,19.7821,-13.0338,-1.85815,-0.656974,7.38421,-0.0407461,-0.344058,5.92754,0.472585,-5.95409,-0.0327293,0.24828,6.42594,0.0474852,-1.98219,-0.205612,0.0309877,0.0732765,0.0524445,-0.0231838,0.0212641,0,0,0,0,0,0,0,0,0,0.0556099,0.074609,-0.00831522,0.60068,-0.00687725,-0.00995641,-0.0206482,-0.0669923,-0.240823,-0.600355,0.0664332,-0.0229296
514,0.000344161,-0.0828032,0.00593692,0.245281,0.0825447,0.0825447,0.0825447,0.0825447,0.0825447,0.0825447,0.0825447,0.0825447,0.0825447,0.647036,-0.846697,0.0174553,1.06577,-0.0828032,0.00593692,0.245281,0.0535757,-0.00763512,0.0129776,0.0460477,-0.00993156,0.0920705,0.0825447,1.98121,-4.80988,0.234063,-0.325826,1.27669,-1.09508,-1.36523,3.616,0.00970145,0.0100735,-0.0605711,-0.469525,0.309815,0.0446068,1.58948,0.0535757,-0.00763512,0.0129776,0.0460477,-0.00993156,0.0920705,0,0,0,0,0,0,0,0,0,0.0141177,0.00760408,0.00146818,0.841537,0.000788366,0.000796105,-0.00229112,0.105013,-0.524771,-0.852358,-0.105718,-0.00188648
515,0.000344161,-0.0352037,0.0557938,-0.00453746,0.0475685,0.0475685,0.0475685,0.0475685,0.0475685,0.0475685,0.0475685,0.0475685,0.0475685,-0.604648,0.555087,0.0524315,0.822478,-0.0352037,0.0557938,-0.00453746,0.0206184,-0.070351,0.0145974,0.0124504,0.0140591,0.0177143,0.0475685,3.6098,4.78806,0.674751,3.64601,-3.47799,-0.0714195,1.04127,-1.27487,0.522365,-0.382034,0.252284,-0.60741,-3.31977,0.0680518,-0.429327,0.0206184,-0.070351,0.0145974,0.0124504,0.0140591,0.0177143,0,0,0,0,0,0,0,0,0,0.00153898,0.0132471,0.0033654,0.0403793,1.82148e-05,0.0026786,-0.00223093,0.00628225,-0.00292922,-0.0409475,-0.00361882,-0.00447617
516,0.000344161,0.0470109,-0.161992,0.791924,0.0494018,0.0494018,0.0494018,0.0494018,0.0494018,0.0494018,0.0494018,0.0494018,0.0494018,0.861841,0.218324,-0.0505982,0.890503,0.0470109,-0.161992,0.791924,0.113991,-0.124117,-0.0294495,-0.00966308,0.0106225,0.0557756,0.0494018,-0.604718,-2.4805,0.845879,7.74578,5.12713,-0.151722,-5.28894,-2.69364,2.39987,-7.32688,0.00920522,2.9535,-0.256906,-0.0936953,1.54352,0.113991,-0.124117,-0.0294495,-0.00966308,0.0106225,0.0557756,0,0,0,0,0,0,0,0,0,-0.0516857,-0.00460159,0.00870443,0.999966,0.00175807,-0.00148681,0.00980309,-0.0489653,-0.776845,-1.00178,0.0491636,-0.00233755
517,0.000344161,-0.00809002,-0.0586605,1.03821,0.0341452,0.0341452,0.0341452,0.0341452,0.0341452,0.0341452,0.0341452,0.0341452,0.0341452,0.878145,-0.347811,0.0658548,0.94681,-0.00809002,-0.0586605,1.03821,0.00991695,-0.171154,-0.0232468,0.222939,0.0813651,0.0872315,0.0341452,1.49208,-9.39398,1.72678,-2.53925,-1.85241,-0.441394,-2.61839,11.2545,-2.18092,-6.57276,-0.449393,1.22031,9.17067,0.191651,0.359876,0.00991695,-0.171154,-0.0232468,0.222939,0.0813651,0.0872315,0,0,0,0,0,0,0,0,0,0.0636648,0.00771431,0.0111025,0.979144,0.00374595,0.00445373,-0.00958555,0.0752761,-0.783971,-0.98379,-0.0789563,0.00159876
518,0.000344161,0.0872147,0.0454865,0.518201,0.0392427,0.0392427,0.0392427,0.0392427,0.0392427,0.0392427,0.0392427,0.0392427,0.0392427,0.553334,-0.602503,0.0292514,0.818562,0.0872147,0.0454865,0.518201,0.0476191,-0.0352925,-0.0496368,0.0371754,-0.0353718,0.0830986,0.0392427,2.96714,-3.73674,1.36567,-7.3006,7.0406,0.426922,-15.798,-3.39107,0.69303,10.735,0.586797,13.7438,-3.47991,0.064856,1.53598,0.0476191,-0.0352925,-0.0496368,0.0371754,-0.0353718,0.0830986,0,0,0,0,0,0,0,0,0,0.0241123,0.010582,0.0112379,0.842144,0.00096841,0.00206597,-0.00084081,0.0672579,-0.466486,-0.838371,-0.0617436,-0.00375206
519,0.000344161,0.0385866,-0.0265663,0.139348,0.0488273,0.0488273,0.0488273,0.0488273,0.0488273,0.0488273,0.0488273,0.0488273,0.0488273,-0.120602,0.867254,0.0511727,0.877094,0.0385866,-0.0265663,0.139348,-0.0150596,0.0396265,0.0419102,0.00444281,2.28882e-05,-0.00559044,0.0488273,9.57542,10.644,-0.471111,-1.68202,-2.13554,0.638579,-1.17258,-8.54703,-0.0767264,0.710142,-0.0390132,0.734083,0.998446,0.0198182,0.299149,-0.0150596,0.0396265,0.0419102,0.00444281,2.28882e-05,-0.00559044,0,0,0,0,0,0,0,0,0,0.0143611,0.0368376,-0.000686859,0.292293,-0.00215285,-0.00362798,-0.0113256,-0.0349292,-0.0717988,-0.285488,0.0345393,-0.0108931
520,0.000344161,0.324396,-0.244283,1.66448,0.0145081,0.0145081,0.0145081,0.0145081,0.0145081,0.0145081,0.0145081,0.0145081,0.0145081,0.580214,0.697539,-0.0854919,0.911327,0.324396,-0.244283,1.66448,-0.186708,-0.0563767,-0.0183868,0.0927498,0.0492296,0.0936489,0.0145081,-10.5886,24.1486,2.55807,-4.46527,-8.70836,-0.234428,-0.626537,-15.7646,-0.451408,3.56949,0.0283333,0.142928,1.14006,-0.0580549,-1.18087,-0.186708,-0.0563767,-0.0183868,0.0927498,0.0492296,0.0936489,0,0,0,0,0,0,0,0,0,-0.0719948,-0.0410708,0.0149712,0.834949,0.00598132,0.0100457,0.0110125,-0.0754799,-0.484203,-0.837477,0.0762555,0.0129838
521,0.000344161,0.00174332,0.0642967,0.14244,0.0245168,0.0245168,0.0245168,0.0245168,0.0245168,0.0245168,0.0245168,0.0245168,0.0245168,-0.156968,-0.975483,0.0548473,0.989553,0.00174332,0.0642967,0.14244,0.0638574,-0.0179014,-0.0241661,0.031557,0.00913858,0.0227759,0.0245168,9.74323,11.4143,0.199259,0.394183,8.42898,1.2746,-0.209643,-19.845,-0.0066228,-0.632347,-0.0201245,-0.0854313,0.173867,0.0146707,0.152634,0.0638574,-0.0179014,-0.0241661,0.031557,0.00913858,0.0227759,0,0,0,0,0,0,0,0,0,0.0139595,0.0376476,-0.00248362,0.26305,0.002555,0.00429719,-0.0112632,0.0568215,-0.0563214,-0.250546,-0.0569314,-0.0112006
522,0.000344161,0.0729885,-0.136188,0.130596,0.0107085,0.0107085,0.0107085,0.0107085,0.0107085,0.0107085,0.0107085,0.0107085,0.0107085,-0.47582,0.882185,-0.0892915,1.00629,0.0729885,-0.136188,0.130596,0.10533,0.0505321,-0.0451794,-0.0979117,-0.00913811,-0.00504231,0.0107085,-9.67852,-18.0353,0.529164,-0.385903,1.63086,0.214511,-0.125149,16.3314,0.0356828,-0.690653,0.0111491,-0.127005,1.21274,-0.00805161,0.121558,0.10533,0.0505321,-0.0451794,-0.0979117,-0.00913811,-0.00504231,0,0,0,0,0,0,0,0,0,-0.00869959,-0.036733,0.00180565,0.0857349,0.00153745,0.00399131,0.0108218,-0.0211314,-0.00971428,-0.0840416,0.0211516,0.0110674
523,0.000344161,0.00820923,-0.0152687,0.0843984,0.0904805,0.0904805,0.0904805,0.0904805,0.0904805,0.0904805,0.0904805,0.0904805,0.0904805,-0.591692,-0.737204,-0.00951946,0.945336,0.00820923,-0.0152687,0.0843984,0.042825,-0.0199925,0.0134163,0.00394814,-0.00605518,0.00516176,0.0904805,-0.867732,-1.80982,0.0114408,0.119176,0.569321,0.338362,0.178142,1.23229,-0.0629393,-0.079558,-0.0631205,-1.54435,-0.0243489,-0.0265432,1.28181,0.042825,-0.0199925,0.0134163,0.00394814,-0.00605518,0.00516176,0,0,0,0,0,0,0,0,0,-0.00106362,-0.00307998,0.000209181,0.0503263,-0.000423828,-0.000294697,0.000749597,0.00387889,-0.00326928,-0.0468085,-0.00457064,0.000937646
524,0.000344161,-0.0141184,-0.0974791,1.15764,0.0202576,0.0202576,0.0202576,0.0202576,0.0202576,0.0202576,0.0202576,0.0202576,0.0202576,0.727108,-0.395269,-0.00660005,0.827627,-0.0141184,-0.0974791,1.15764,0.0362917,0.00746635,-0.0693359,0.0181675,-0.0668406,0.0721896,0.0202576,-0.186975,-2.66531,-0.196836,-1.09267,1.86599,0.717554,-18.1737,0.813434,-0.155697,-1.35825,1.4587,14.406,2.54839,-0.00117943,2.6101,0.0362917,0.00746635,-0.0693359,0.0181675,-0.0668406,0.0721896,0,0,0,0,0,0,0,0,0,-0.00690775,-0.000502797,-0.0025785,0.949828,-0.00161927,0.000684812,-0.00043703,0.0768176,-0.634854,-0.943346,-0.062899,0.000605669
525,0.000344161,0.0713625,-0.0526228,0.262057,0.0755816,0.0755816,0.0755816,0.0755816,0.0755816,0.0755816,0.0755816,0.0755816,0.0755816,0.714235,-0.755491,-0.0244184,1.03995,0.0713625,-0.0526228,0.262057,0.0799987,0.00841641,0.00402832,0.0277605,-0.000108719,0.0769462,0.0755816,-2.26181,8.02778,-0.546452,0.668047,-1.91176,-1.11716,-1.24827,-6.18738,-0.0249479,0.0317006,-0.178539,-0.795791,-0.647125,-0.029552,1.782,0.0799987,0.00841641,0.00402832,0.0277605,-0.000108719,0.0769462,0,0,0,0,0,0,0,0,0,-0.0219547,-0.0084495,-0.00254528,0.876547,-0.00353468,-0.00283507,0.0024736,0.1004,-0.592741,-0.887678,-0.102186,0.00269651
526,0.000344161,-0.0461922,-0.220305,3.77578,0.00719034,0.00719034,0.00719034,0.00719034,0.00719034,0.00719034,0.00719034,0.00719034,0.00719034,0.806448,-0.99281,0.0587068,1.28042,-0.0461922,-0.220305,3.77578,0.00930899,-0.0680658,-0.103836,0.0748214,-0.00148487,0.0846862,0.00719034,3.74688,-21.432,0.0452765,-0.0854071,5.36058,-0.814332,-0.965387,16.1176,0.00709803,0.0467259,-0.065068,-2.93065,0.258986,0.138583,0.120256,0.00930899,-0.0680658,-0.103836,0.0748214,-0.00148487,0.0846862,0,0,0,0,0,0,0,0,0,0.051756,0.0140947,0.000236807,0.893907,0.00631169,-0.000464699,-0.00427661,0.126533,-0.647784,-0.903089,-0.127199,-0.00356986
527,0.000344161,-0.0482855,-0.0996962,0.611662,0.0430565,0.0430565,0.0430565,0.0430565,0.0430565,0.0430565,0.0430565,0.0430565,0.0430565,0.799698,0.6756,-0.0569435,1.04843,-0.0482855,-0.0996962,0.611662,0.0974456,-0.0415713,-0.0153275,0.0154652,-0.000659943,0.0290725,0.0430565,-3.5132,18.1442,1.33319,-2.7953,-3.37523,-0.792145,-0.609385,-14.7207,0.240944,-1.6326,0.27112,-0.781114,4.52759,-0.0839954,0.778837,0.0974456,-0.0415713,-0.0153275,0.0154652,-0.000659943,0.0290725,0,0,0,0,0,0,0,0,0,-0.0528613,-0.01337,0.00742665,0.914872,0.00501073,0.00548953,0.00499082,-0.0988051,-0.680144,-0.922946,0.10151,0.00343415
528,0.000344161,-0.0881281,0.0624992,0.166752,0.0133784,0.0133784,0.0133784,0.0133784,0.0133784,0.0133784,0.0133784,0.0133784,0.0133784,-0.492884,0.870915,0.0866216,1.00446,-0.0881281,0.0624992,0.166752,-0.0772792,-0.0853162,0.0602298,0.0751965,-0.00127578,-0.00473833,0.0133784,9.00982,17.2617,-0.501442,0.54182,-2.02605,0.2358,0.0280712,-15.1476,0.0134213,0.204919,0.0120078,-0.209597,-0.809238,0.00144582,0.0147729,-0.0772792,-0.0853162,0.0602298,0.0751965,-0.00127578,-0.00473833,0,0,0,0,0,0,0,0,0,0.0066504,0.0342575,-0.00196786,0.0806963,-0.00196807,-0.00389973,-0.00996214,-0.0189221,-0.00852523,-0.077736,0.0190294,-0.0104217
529,0.000344161,0.0540972,-0.00808835,-0.0038068,0.0255729,0.0255729,0.0255729,0.0255729,0.0255729,0.0255729,0.0255729,0.0255729,0.0255729,-0.482387,-0.840885,-0.0744271,0.972278,0.0540972,-0.00808835,-0.0038068,0.0814871,-0.0129521,-0.000301361,-0.0613554,0.0360532,0.0188644,0.0255729,-7.8583,-14.7631,-0.366625,0.853224,3.69112,0.368645,0.207031,11.0179,0.015077,0.26963,-0.0335751,-0.429813,-1.11477,-0.00356944,0.226588,0.0814871,-0.0129521,-0.000301361,-0.0613554,0.0360532,0.0188644,0,0,0,0,0,0,0,0,0,-0.0071693,-0.0298751,-0.0009392,0.0857667,-0.00162783,-0.00285657,0.0087776,0.0166312,-0.0095352,-0.0820833,-0.0166064,0.00908547
530,0.000344161,-0.0380793,-0.0127559,0.328006,0.063207,0.063207,0.063207,0.063207,0.063207,0.063207,0.063207,0.063207,0.063207,0.724973,0.881863,0.036793,1.1422,-0.0380793,-0.0127559,0.328006,0.0436869,-0.021821,0.058075,0.051697,-0.0221996,0.0613896,0.063207,3.29862,-11.4874,-0.389324,0.703422,2.79641,-1.06094,-1.28862,8.72911,0.00613699,-0.099724,0.0976439,-0.506897,-0.590942,0.0840262,1.46751,0.0436869,-0.021821,0.058075,0.051697,-0.0221996,0.0613896,0,0,0,0,0,0,0,0,0,0.0312451,0.0126205,-0.00183094,0.872682,-0.00464158,-0.00228052,-0.00380186,-0.111259,-0.590732,-0.88271,0.112013,-0.00336395
531,0.000344161,0.155006,-0.0401322,0.000701651,0.0180662,0.0180662,0.0180662,0.0180662,0.0180662,0.0180662,0.0180662,0.0180662,0.0180662,-0.566893,-0.955115,-0.0819338,1.1137,0.155006,-0.0401322,0.000701651,0.108445,-0.166275,-0.00435877,0.0112424,-0.000307322,0.0204637,0.0180662,-7.36308,-16.068,-0.379202,0.337171,-6.60033,0.499248,-0.0300048,22.5134,-0.0281088,-0.886733,0.0110031,0.126381,0.589694,-0.00561633,-0.0970774,0.108445,-0.166275,-0.00435877,0.0112424,-0.000307322,0.0204637,0,0,0,0,0,0,0,0,0,-0.00510714,-0.0279001,0.000940641,0.048802,-0.00235794,-0.00639541,0.00828873,0.0236429,-0.00195893,-0.0438531,-0.0235359,0.0084473
532,0.000344161,0.232073,0.0818245,0.6756,0.0226167,0.0226167,0.0226167,0.0226167,0.0226167,0.0226167,0.0226167,0.0226167,0.0226167,0.346124,-0.687953,0.00436746,0.77013,0.232073,0.0818245,0.6756,0.0201584,-0.00826233,0.105858,0.0301518,0.0478039,0.0642428,0.0226167,0.836682,-1.92891,0.221427,-0.0308755,1.64366,0.389501,-0.714947,0.0531766,0.0850264,-0.0417751,0.418186,-1.52296,-0.00917399,0.023756,1.56231,0.0201584,-0.00826233,0.105858,0.0301518,0.0478039,0.0642428,0,0,0,0,0,0,0,0,0,0.00253355,0.00306111,0.00215383,0.693604,-0.000657538,-2.21872e-05,-0.000647206,0.048911,-0.302907,-0.688651,-0.0442511,-0.000783103
533,0.000344161,-0.0436524,-0.0950461,0.0361063,0.0145924,0.0145924,0.0145924,0.0145924,0.0145924,0.0145924,0.0145924,0.0145924,0.0145924,-0.384243,-0.501312,0.00294058,0.631637,-0.0436524,-0.0950461,0.0361063,-0.0181437,0.00320713,-0.0424738,0.00762814,0.0293858,0.0257685,0.0145924,0.151792,-3.14555,-0.140286,1.98373,2.58168,-1.78693,-14.9485,0.607518,0.141237,-1.33367,1.73608,15.5689,-0.555015,-0.0146137,-0.656548,-0.0181437,0.00320713,-0.0424738,0.00762814,0.0293858,0.0257685,0,0,0,0,0,0,0,0,0,-0.00029777,0.000329392,-0.00124992,0.0827559,-0.000484535,-0.000120869,0.000405479,-0.018902,-0.0170697,-0.10105,0.0365566,-0.000283074
534,0.000344161,-0.010838,0.0473497,0.403384,0.0741277,0.0741277,0.0741277,0.0741277,0.0741277,0.0741277,0.0741277,0.0741277,0.0741277,0.816734,0.576622,0.0258723,1.00011,-0.010838,0.0473497,0.403384,0.026945,-0.0327629,0.0354004,0.056263,-0.0461473,0.0555818,0.0741277,1.31503,-7.04627,-0.635863,1.09408,0.828659,-1.07003,-2.31345,6.22845,-0.207215,1.01988,0.506677,-0.46653,-2.16132,0.0980087,2.3766,0.026945,-0.0327629,0.0354004,0.056263,-0.0461473,0.0555818,0,0,0,0,0,0,0,0,0,0.023108,0.00515841,-0.00349639,0.929552,-0.00294885,-0.00318987,-0.00230624,-0.0910339,-0.705697,-0.939899,0.0956392,-0.00078353
535,0.000344161,-0.0233083,-0.0160513,0.104134,0.0934738,0.0934738,0.0934738,0.0934738,0.0934738,0.0934738,0.0934738,0.0934738,0.0934738,0.258576,0.874301,0.00652621,0.911759,-0.0233083,-0.0160513,0.104134,-0.000933304,-0.0182249,0.0308571,-0.00206557,-0.00345182,0.0127914,0.0934738,1.29111,-0.88872,-0.115259,-0.0456287,0.475784,-0.270486,-3.24464,0.436244,0.0358033,-0.420143,-0.339598,2.10792,0.481823,0.0167626,1.03258,-0.000933304,-0.0182249,0.0308571,-0.00206557,-0.00345182,0.0127914,0,0,0,0,0,0,0,0,0,0.00315911,0.00488918,-0.000394198,0.595347,-0.000881935,-0.000940639,-0.001393,-0.0726059,-0.237458,-0.597744,0.0691754,-0.00141392
536,0.000344161,0.0186701,-5.84126e-05,0.0727696,0.0762523,0.0762523,0.0762523,0.0762523,0.0762523,0.0762523,0.0762523,0.0762523,0.0762523,0.0314695,-0.889071,-0.0237477,0.889945,0.0186701,-5.84126e-05,0.0727696,0.0498288,0.00295627,-0.0340233,0.0214142,-0.0159087,0.0467241,0.0762523,-4.9759,-2.26638,-0.332461,-0.625763,-0.720967,0.583518,-3.00206,2.96868,-0.0595669,-0.96021,0.243243,2.35657,1.58603,-0.00966321,0.572721,0.0498288,0.00295627,-0.0340233,0.0214142,-0.0159087,0.0467241,0,0,0,0,0,0,0,0,0,-0.0102845,-0.0189452,-0.00028622,0.407979,-0.00196725,-0.00300883,0.00549442,0.0547403,-0.121891,-0.402485,-0.0524669,0.00587049
537,0.000344161,0.4396,-0.270607,1.04371,0.0251323,0.0251323,0.0251323,0.0251323,0.0251323,0.0251323,0.0251323,0.0251323,0.0251323,0.881859,0.885743,-0.0748677,1.25213,0.4396,-0.270607,1.04371,0.238508,0.0413888,-0.0107193,-0.0586735,-0.00980568,-4.34518e-05,0.0251323,-2.90966,25.3763,0.479604,-2.15566,-4.08904,-0.537239,-0.0919128,-21.7268,0.138256,-1.38641,0.0902902,-0.49925,3.81268,-0.0892469,-0.452547,0.238508,0.0413888,-0.0107193,-0.0586735,-0.00980568,-4.34518e-05,0,0,0,0,0,0,0,0,0,-0.0690452,-0.0102625,0.00385947,0.916279,0.00823282,0.00135046,0.00349122,-0.119151,-0.732419,-0.921759,0.119956,0.00264685
538,0.000344161,-0.0766451,-0.0855112,0.0504304,0.0803684,0.0803684,0.0803684,0.0803684,0.0803684,0.0803684,0.0803684,0.0803684,0.0803684,-0.345098,0.622882,-0.00967029,0.712158,-0.0766451,-0.0855112,0.0504304,0.0231736,-0.00548123,0.0121975,0.00249708,-0.00253487,0.0027878,0.0803684,-1.05639,-0.774029,-0.276945,-1.1384,2.04792,-0.436986,-10.8534,-1.19725,-0.0265807,1.86091,-0.246135,10.3841,-0.637004,-0.00371492,0.418837,0.0231736,-0.00548123,0.0121975,0.00249708,-0.00253487,0.0027878,0,0,0,0,0,0,0,0,0,-0.00191774,-0.00394504,-0.0025677,0.134834,-0.000500271,-0.000256559,0.00110061,0.0155634,-0.0253882,-0.139082,-0.0180501,0.00121639
539,0.000344161,-0.192461,-0.10156,0.698519,0.0265243,0.0265243,0.0265243,0.0265243,0.0265243,0.0265243,0.0265243,0.0265243,0.0265243,0.751813,0.973476,0.030857,1.23038,-0.192461,-0.10156,0.698519,-0.0389081,-0.0086327,0.0154572,0.057011,-0.0203972,0.0640709,0.0265243,2.59225,-10.0693,-0.0753087,0.180423,2.91504,-1.07415,-2.06028,7.34677,-0.00275099,0.144373,0.0815366,-0.306185,-0.223236,0.0856789,1.66794,-0.0389081,-0.0086327,0.0154572,0.057011,-0.0203972,0.0640709,0,0,0,0,0,0,0,0,0,0.026262,0.00958517,-1.352e-05,0.878027,-0.00430042,-0.000825894,-0.00291027,-0.121311,-0.603752,-0.888614,0.121922,-0.00243282
540,0.000344161,-0.0204849,0.00363743,0.157444,0.0392143,0.0392143,0.0392143,0.0392143,0.0392143,0.0392143,0.0392143,0.0392143,0.0392143,-0.27166,-0.8965,0.0607857,0.938726,-0.0204849,0.00363743,0.157444,0.0537008,-0.0703798,-0.00778961,0.00196779,0.0097909,0.00734854,0.0392143,9.23857,14.5518,0.434546,0.76737,-1.11223,0.693156,0.104162,-13.4191,-0.111586,-1.78689,-0.0555401,-0.351078,1.01588,0.0147766,0.0894724,0.0537008,-0.0703798,-0.00778961,0.00196779,0.0097909,0.00734854,0,0,0,0,0,0,0,0,0,0.0110391,0.0358404,0.000851269,0.18943,0.00151903,0.0027904,-0.011169,0.033517,-0.0351823,-0.182576,-0.0339744,-0.0105103
541,0.000344161,0.271685,-0.18294,15.041,0.000569472,0.000569472,0.000569472,0.000569472,0.000569472,0.000569472,0.000569472,0.000569472,0.000569472,0.908854,-0.999431,0.0670841,1.35255,0.271685,-0.18294,15.041,0.0400239,-0.121323,-0.180885,0.121256,-0.0140095,0.10954,0.000569472,1.77553,-24.9881,0.00556314,-0.112886,3.84433,-0.728301,-0.533571,20.872,0.00360274,-0.211125,-0.0151439,-14.6629,0.50695,0.155524,0.155459,0.0400239,-0.121323,-0.180885,0.121256,-0.0140095,0.10954,0,0,0,0,0,0,0,0,0,0.0604068,0.00653301,0.000841113,0.913267,0.00727607,-0.00199871,-0.00192049,0.126287,-0.74057,-0.922359,-0.126579,-0.00121947
542,0.000344161,-0.0381873,0.0408125,-0.0106008,0.0807377,0.0807377,0.0807377,0.0807377,0.0807377,0.0807377,0.0807377,0.0807377,0.0807377,-0.615111,0.518006,0.0192623,0.804402,-0.0381873,0.0408125,-0.0106008,0.00459608,-0.0215947,0.0292614,-0.0170861,0.00691128,-0.00886863,0.0807377,1.15734,2.29087,0.253772,1.54872,-1.03727,-0.0529014,-2.14634,-1.21542,0.22276,-0.066258,0.362509,-0.596031,-1.52328,0.0496717,2.75297,0.00459608,-0.0215947,0.0292614,-0.0170861,0.00691128,-0.00886863,0,0,0,0,0,0,0,0,0,9.87202e-05,0.00418461,0.0013472,0.0355784,-0.000186125,0.000974572,-0.00059673,0.00772935,-0.0022897,-0.0358148,-0.00403515,-0.00142108
543,0.000344161,-0.0197071,0.00124836,0.146248,0.0804226,0.0804226,0.0804226,0.0804226,0.0804226,0.0804226,0.0804226,0.0804226,0.0804226,0.0342842,0.845015,0.0195774,0.845937,-0.0197071,0.00124836,0.146248,0.0216796,0.0109212,0.0795937,0.000683367,0.00989604,0.0134373,0.0804226,4.10569,1.81557,-0.260181,-0.795371,-0.581577,0.315248,-2.9973,-1.21428,0.0783458,-0.985846,-0.352282,2.15095,1.77997,0.0159125,0.700101,0.0216796,0.0109212,0.0795937,0.000683367,0.00989604,0.0134373,0,0,0,0,0,0,0,0,0,0.00742549,0.0157494,-0.000535206,0.413861,-0.00121162,-0.00195739,-0.00449225,-0.0431079,-0.125989,-0.409913,0.039684,-0.00474065
544,0.000344161,0.00334677,-0.0152674,0.0665172,0.0994677,0.0994677,0.0994677,0.0994677,0.0994677,0.0994677,0.0994677,0.0994677,0.0994677,-0.168413,-0.803511,-0.000532266,0.820971,0.00334677,-0.0152674,0.0665172,0.0625239,-0.00702755,0.0126991,0.0276085,-0.0110146,0.0275737,0.0994677,-0.102007,-0.0747333,-0.013022,-0.00284706,0.1763,0.606942,-1.92087,-0.104913,-0.00581585,0.0119148,0.0587595,1.46437,0.00619972,0.00108645,0.389979,0.0625239,-0.00702755,0.0126991,0.0276085,-0.0110146,0.0275737,0,0,0,0,0,0,0,0,0,-0.000722136,-0.000210075,0.000367347,0.25835,-0.00056296,-0.000567842,9.63065e-05,0.0195001,-0.0597148,-0.252154,-0.0190227,0.000130644
545,0.000344161,-0.0650427,-0.0162702,0.0216706,0.0896426,0.0896426,0.0896426,0.0896426,0.0896426,0.0896426,0.0896426,0.0896426,0.0896426,-0.406141,0.802121,-0.0103574,0.899141,-0.0650427,-0.0162702,0.0216706,0.023842,-0.0159001,0.0425339,0.00276795,0.00797963,0.00315255,0.0896426,-1.29044,-2.01968,0.00420144,-0.123223,0.853354,0.679174,0.689697,1.23136,0.0199131,-0.154213,0.155553,-0.838299,0.293707,0.00180191,0.126931,0.023842,-0.0159001,0.0425339,0.00276795,0.00797963,0.00315255,0,0,0,0,0,0,0,0,0,-0.00190958,-0.00490343,-0.000208885,0.123319,-0.000215674,9.18986e-05,0.00154298,-0.0121569,-0.0175971,-0.116102,0.0137922,0.00145435
546,0.000344161,-0.415234,0.189283,2.38428,0.00279568,0.00279568,0.00279568,0.00279568,0.00279568,0.00279568,0.00279568,0.00279568,0.00279568,-0.0707069,0.78408,0.0972043,0.79324,-0.415234,0.189283,2.38428,0.156508,0.00361055,0.0533905,0.159667,-0.0280755,0.0844831,0.00279568,19.4348,21.0202,-0.49364,-3.80588,-17.1523,0.00632051,-0.150594,-3.45268,-0.185747,-1.10157,-0.00891516,0.171388,4.71816,0.0209001,-2.40507,0.156508,0.00361055,0.0533905,0.159667,-0.0280755,0.0844831,0,0,0,0,0,0,0,0,0,0.0314151,0.0752597,0.00199356,0.329785,-0.00221867,-0.00689385,-0.0228273,-0.0175194,-0.0900327,-0.329188,0.0171494,-0.02217
547,0.000344161,-0.0242901,0.384027,0.778907,0.0237621,0.0237621,0.0237621,0.0237621,0.0237621,0.0237621,0.0237621,0.0237621,0.0237621,0.967267,0.836422,0.0762379,1.28102,-0.0242901,0.384027,0.778907,0.132826,-0.110169,0.0271606,-0.0411951,0.0347233,-0.0424,0.0237621,0.555286,-28.2447,-0.257123,9.53267,1.70339,-0.583575,-7.39683,26.5656,-0.393973,3.42438,0.281622,-1.34641,-13.3411,0.0925136,7.96433,0.132826,-0.110169,0.0271606,-0.0411951,0.0347233,-0.0424,0,0,0,0,0,0,0,0,0,0.0694068,0.00309087,-0.00467678,0.927443,-0.00958993,0.00100386,-0.00252552,-0.120271,-0.817623,-0.933007,0.123435,-9.91132e-05
548,0.000344161,-0.296625,0.680344,2.7617,0.014603,0.014603,0.014603,0.014603,0.014603,0.014603,0.014603,0.014603,0.014603,0.955399,0.152865,0.085397,0.971312,-0.296625,0.680344,2.7617,-0.0563307,-0.114226,-0.0376053,0.0349307,0.0019474,0.0128376,0.014603,0.746229,-8.37739,-0.930962,13.3203,-4.51538,-0.177138,-3.07987,13.1894,-4.79841,6.86974,0.279485,1.43047,-20.8704,0.221828,-1.1123,-0.0563307,-0.114226,-0.0376053,0.0349307,0.0019474,0.0128376,0,0,0,0,0,0,0,0,0,0.0858415,0.00787902,-0.0105731,1.02265,-0.00393544,0.000121173,-0.0193879,-0.0416432,-0.874561,-1.0248,0.0444575,0.00560285
549,0.000344161,-0.18837,0.152548,0.205117,0.0170001,0.0170001,0.0170001,0.0170001,0.0170001,0.0170001,0.0170001,0.0170001,0.0170001,-0.319608,-0.575814,0.0829999,0.663777,-0.18837,0.152548,0.205117,0.14786,0.0753107,-0.0538616,-0.115998,0.0109291,-0.0268445,0.0170001,7.19776,-17.1442,-3.30438,-16.7063,-16.7074,-0.618449,-9.95373,34.04,1.33803,41.8922,0.482237,9.86747,-25.3385,0.0199066,-0.118857,0.14786,0.0753107,-0.0538616,-0.115998,0.0109291,-0.0268445,0,0,0,0,0,0,0,0,0,0.0103969,0.0268503,-0.0326393,0.13991,-0.0022455,0.000348608,-0.00376758,-0.0274699,-0.0280301,-0.146634,0.0324016,-0.00991243
550,0.000344161,0.0453862,-0.0457709,0.219339,0.0783868,0.0783868,0.0783868,0.0783868,0.0783868,0.0783868,0.0783868,0.0783868,0.0783868,0.74179,0.921613,-0.00249357,1.18306,0.0453862,-0.0457709,0.219339,-0.000114098,-0.0290437,0.0261078,0.0533136,-0.0261698,0.0740813,0.0783868,-0.166204,1.38957,0.0313776,-0.049705,-0.411404,-1.2116,-1.86354,-1.02355,-0.00627097,-0.042685,0.096863,-0.397392,0.138161,0.0137292,2.04159,-0.000114098,-0.0290437,0.0261078,0.0533136,-0.0261698,0.0740813,0,0,0,0,0,0,0,0,0,-0.00300275,-0.000795286,0.000280544,0.875036,-0.000266628,-0.000257205,0.000271519,-0.115994,-0.60101,-0.886891,0.116701,0.000475359
551,0.000344161,0.112973,-0.186369,0.460448,0.0490046,0.0490046,0.0490046,0.0490046,0.0490046,0.0490046,0.0490046,0.0490046,0.0490046,0.744737,-0.420636,0.0489973,0.856719,0.112973,-0.186369,0.460448,0.0142792,-0.107709,-0.0200272,0.0154845,-0.0428138,0.081338,0.0490046,1.72666,7.66265,1.27681,2.08044,-6.0054,0.0541144,-13.1588,-1.77022,0.148487,5.77825,0.511453,11.3576,-7.67232,0.121481,1.34075,0.0142792,-0.107709,-0.0200272,0.0154845,-0.0428138,0.081338,0,0,0,0,0,0,0,0,0,0.0456436,0.00627272,0.0117025,0.944019,0.00256942,-1.15068e-05,-0.00161214,0.0740148,-0.649831,-0.943678,-0.0693284,-0.00141791
552,0.000344161,0.242621,-0.477974,-0.0584198,0.0048251,0.0048251,0.0048251,0.0048251,0.0048251,0.0048251,0.0048251,0.0048251,0.0048251,-0.615719,-0.828738,-0.0951749,1.03681,0.242621,-0.477974,-0.0584198,-0.484111,-0.172637,-0.413683,-0.338871,-0.0154098,0.149947,0.0048251,-7.61064,-11.0473,-0.53962,1.5543,2.80547,0.12927,0.981026,7.9992,-0.280608,-2.02535,0.00517864,-0.0977618,0.949027,-0.00756146,-0.824845,-0.484111,-0.172637,-0.413683,-0.338871,-0.0154098,0.149947,0,0,0,0,0,0,0,0,0,-0.00445544,-0.0305832,-0.002206,0.0345478,-0.00131304,-0.00491657,0.0067932,0.00908276,-0.00208304,-0.037392,-0.00918507,0.0106025
553,0.000344161,0.0868111,-0.13755,-0.00216419,0.0165373,0.0165373,0.0165373,0.0165373,0.0165373,0.0165373,0.0165373,0.0165373,0.0165373,-0.489149,0.881146,-0.0834627,1.01126,0.0868111,-0.13755,-0.00216419,-0.00360596,0.0291247,-0.0215673,-0.0675998,-0.0165849,0.00670576,0.0165373,-8.72811,-16.6774,0.510504,-0.568399,1.4918,0.305985,-0.00526275,15.0988,-0.00177044,-0.22835,0.015786,-0.213565,0.934299,-0.0064047,0.220992,-0.00360596,0.0291247,-0.0215673,-0.0675998,-0.0165849,0.00670576,0,0,0,0,0,0,0,0,0,-0.00774606,-0.0335038,0.00163418,0.0814903,0.00135412,0.00376211,0.0098079,-0.0203281,-0.00858996,-0.0786461,0.0203201,0.0101563
554,0.000344161,-0.00266075,-0.0797729,0.217109,0.0254662,0.0254662,0.0254662,0.0254662,0.0254662,0.0254662,0.0254662,0.0254662,0.0254662,-0.286219,0.610033,0.0745338,0.677951,-0.00266075,-0.0797729,0.217109,-0.00912583,-0.0786294,0.067646,0.00575602,0.0273643,0.014555,0.0254662,8.02369,-2.54421,2.8397,16.3462,-24.3616,-0.795622,-12.0759,26.9085,0.831374,-33.6593,-0.529077,11.9126,17.3929,0.0222198,-0.0538494,-0.00912583,-0.0786294,0.067646,0.00575602,0.0273643,0.014555,0,0,0,0,0,0,0,0,0,0.0110864,0.0298169,0.0282922,0.163453,0.0010701,-0.000681454,-0.00607028,0.0232804,-0.0345308,-0.170733,-0.0282976,-0.0100721
555,0.000344161,-0.0130087,-0.0327873,-0.0881348,0.0891004,0.0891004,0.0891004,0.0891004,0.0891004,0.0891004,0.0891004,0.0891004,0.0891004,-0.609061,0.296017,0.0108996,0.677274,-0.0130087,-0.0327873,-0.0881348,0.0277925,-0.00891588,0.00817931,0.00415044,0.0411971,-0.0083822,0.0891004,0.200625,-0.450239,0.147135,0.657897,0.449651,-0.193945,-2.97924,0.0135965,0.13261,-0.107714,0.133603,1.88827,-0.517396,0.0138607,1.17911,0.0277925,-0.00891588,0.00817931,0.00415044,0.0411971,-0.0083822,0,0,0,0,0,0,0,0,0,-0.000398681,0.000714408,0.000953083,0.0151495,-0.000236938,0.000429111,0.000256121,0.00930512,-0.00100936,-0.0170071,-0.00755712,-0.000400288
556,0.000344161,0.107543,-0.121365,1.0546,0.0148685,0.0148685,0.0148685,0.0148685,0.0148685,0.0148685,0.0148685,0.0148685,0.0148685,0.283404,0.81499,-0.0851315,0.867049,0.107543,-0.121365,1.0546,-0.0508385,-0.0761777,0.0150986,0.0242023,-0.0353012,0.0159917,0.0148685,-17.7045,15.0426,1.93313,1.26491,-6.89176,-0.14506,-0.648672,-8.25839,-0.755094,5.70036,-0.0990225,0.346512,-6.8439,-0.0460184,-0.752439,-0.0508385,-0.0761777,0.0150986,0.0242023,-0.0353012,0.0159917,0,0,0,0,0,0,0,0,0,-0.0536018,-0.067412,0.00972815,0.622672,0.00483615,0.00884133,0.0177105,-0.0603171,-0.257311,-0.623971,0.0589738,0.0212148
557,0.000344161,0.070668,-0.0264912,0.185478,0.0866591,0.0866591,0.0866591,0.0866591,0.0866591,0.0866591,0.0866591,0.0866591,0.0866591,0.893529,-0.27853,-0.0133409,0.93603,0.070668,-0.0264912,0.185478,0.0805198,0.0309567,0.0341034,-0.0670772,0.053627,0.123435,0.0866591,-0.198102,2.51885,-0.371931,1.11345,0.502769,-0.683973,-6.7778,-3.09229,0.783547,2.30549,-0.681053,3.03758,-3.39245,-0.00398492,3.55475,0.0805198,0.0309567,0.0341034,-0.0670772,0.053627,0.123435,0,0,0,0,0,0,0,0,0,-0.0139789,-0.00141676,-0.00339092,0.991049,-0.00191733,-1.88213e-05,0.0027535,0.0626683,-0.804438,-0.997548,-0.0689425,-0.000231601
558,0.000344161,-0.17161,0.0373576,0.35612,0.049479,0.049479,0.049479,0.049479,0.049479,0.049479,0.049479,0.049479,0.049479,0.636555,-0.924895,-0.050521,1.12392,-0.17161,0.0373576,0.35612,0.130575,-0.012211,0.0130005,0.0173436,-0.000630379,0.068526,0.049479,-6.08115,15.2218,-0.464569,0.748687,-5.11447,-0.759738,-1.26099,-9.93572,-0.0187804,-0.537863,-0.0347044,0.0599772,-0.248182,-0.0510815,0.844894,0.130575,-0.012211,0.0130005,0.0173436,-0.000630379,0.068526,0,0,0,0,0,0,0,0,0,-0.0426622,-0.0229053,-0.00161261,0.834318,-0.00682973,-0.00315519,0.0068404,0.114691,-0.507439,-0.841786,-0.115044,0.0069348
559,0.000344161,-1.35799,-0.143867,9.03335,0.00316513,0.00316513,0.00316513,0.00316513,0.00316513,0.00316513,0.00316513,0.00316513,0.00316513,0.730531,-0.357453,0.0641628,0.815822,-1.35799,-0.143867,9.03335,-0.086034,-0.0706166,0.323708,0.17687,0.50477,0.0899557,0.00316513,0.474116,57.0146,0.68443,63.742,-45.7128,0.484699,46.8117,-9.94381,1.02526,-45.2993,1.00338,-56.4794,-18.2989,0.16078,0.634317,-0.086034,-0.0706166,0.323708,0.17687,0.50477,0.0899557,0,0,0,0,0,0,0,0,0,0.0609559,-0.000183764,0.0185078,0.958536,0.00378679,-0.0123697,0.00388649,0.0715994,-0.640383,-0.950452,-0.0565179,-0.000870496
560,0.000344161,0.106432,-0.104084,0.0805704,0.0297875,0.0297875,0.0297875,0.0297875,0.0297875,0.0297875,0.0297875,0.0297875,0.0297875,-0.398746,0.508213,-0.0680438,0.649545,0.106432,-0.104084,0.0805704,0.00673252,-0.0233378,0.0220661,-0.034409,0.0341249,-0.0149627,0.0297875,-3.78688,19.4601,-2.33982,-6.53952,0.619386,-0.808182,-13.8235,-20.186,-1.32012,24.2682,-0.755767,13.4943,-17.6246,-0.00665925,0.248628,0.00673252,-0.0233378,0.0220661,-0.034409,0.0341249,-0.0149627,0,0,0,0,0,0,0,0,0,-0.00640728,-0.0129512,-0.023756,0.0895222,-0.00185665,0.000124415,-0.000823065,0.0259393,-0.0162339,-0.0973834,-0.0331558,0.00584147
561,0.000344161,-0.0887337,-0.0178998,-0.337101,0.0150614,0.0150614,0.0150614,0.0150614,0.0150614,0.0150614,0.0150614,0.0150614,0.0150614,-0.630562,-0.886056,-0.0849386,1.09083,-0.0887337,-0.0178998,-0.337101,0.085987,-0.128403,-0.241904,-0.17407,-0.00739503,-0.0588157,0.0150614,-6.9613,-10.6712,-0.67987,1.682,-0.473888,0.201619,5.3354,11.2338,-0.271747,-3.49047,0.0216338,0.0162833,1.82637,-0.0713552,-5.01458,0.085987,-0.128403,-0.241904,-0.17407,-0.00739503,-0.0588157,0,0,0,0,0,0,0,0,0,-0.00358433,-0.0257789,-0.00189859,0.0290711,-0.00149817,-0.00618415,0.00636857,0.012232,-0.000880666,-0.0294739,-0.0120896,0.0079468
562,0.000344161,-0.0716817,0.00305361,0.0193719,0.0721379,0.0721379,0.0721379,0.0721379,0.0721379,0.0721379,0.0721379,0.0721379,0.0721379,-0.2756,-0.660088,-0.00864863,0.715365,-0.0716817,0.00305361,0.0193719,0.0738333,-0.0147842,0.0333061,0.0283607,-0.0256178,0.0109543,0.0721379,-1.11956,-1.25208,0.2126,0.972043,2.52126,-0.597054,-12.7877,-1.1975,-0.000667565,-1.56095,0.387183,12.0913,0.585852,-0.000479423,0.677084,0.0738333,-0.0147842,0.0333061,0.0283607,-0.0256178,0.0109543,0,0,0,0,0,0,0,0,0,-0.00206514,-0.00406605,0.00249188,0.174471,-0.000401596,-0.000513717,0.00130103,-0.0108013,-0.0367731,-0.180108,0.014417,0.00121494
563,0.000344161,-0.0536556,0.0207443,0.561453,0.0246902,0.0246902,0.0246902,0.0246902,0.0246902,0.0246902,0.0246902,0.0246902,0.0246902,0.420546,-0.664903,0.0753098,0.790333,-0.0536556,0.0207443,0.561453,0.0316908,-0.181033,0.0304184,0.0762074,-0.00391769,0.111305,0.0246902,12.4552,-26.5039,4.12764,-13.2552,36.7476,0.285457,-4.91496,-10.1901,1.70452,22.0568,0.288013,4.7416,-8.82233,0.0973219,-0.388088,0.0316908,-0.181033,0.0304184,0.0762074,-0.00391769,0.111305,0,0,0,0,0,0,0,0,0,0.0560891,0.045731,0.0302912,0.748676,0.00324634,0.00917484,-0.00779968,0.0530959,-0.358013,-0.745517,-0.0502549,-0.0156602
564,0.000344161,-0.0263232,-0.0314076,-0.000908345,0.0609085,0.0609085,0.0609085,0.0609085,0.0609085,0.0609085,0.0609085,0.0609085,0.0609085,-0.632374,-0.0732544,0.0291852,0.637272,-0.0263232,-0.0314076,-0.000908345,0.0134508,0.00856528,0.025088,0.00295873,-0.0268368,-0.00133011,0.0609085,0.070138,-1.17448,-0.0741408,0.0686323,1.15097,-0.0626455,-0.608317,0.0498324,0.257059,-0.256149,-0.0138893,0.322965,0.218925,0.0108225,0.28626,0.0134508,0.00856528,0.025088,0.00295873,-0.0268368,-0.00133011,0,0,0,0,0,0,0,0,0,-0.000467509,1.05224e-05,-0.000467496,0.00270555,-0.000407079,-0.000188259,0.000892666,-0.0018077,0.000207186,-0.00308112,0.00140044,-0.00035996
565,0.000344161,-0.0302315,0.00387757,0.0793424,0.0585772,0.0585772,0.0585772,0.0585772,0.0585772,0.0585772,0.0585772,0.0585772,0.0585772,-0.376692,-0.941423,-0.00869892,1.01403,-0.0302315,0.00387757,0.0793424,0.0608661,0.0020789,-0.0288897,0.0174907,-0.00730276,0.015137,0.0585772,-1.17863,-1.81458,-0.0543827,-0.0259239,-0.536235,1.37482,0.409119,2.38105,0.00358754,0.112671,-0.0556517,-0.675951,-0.090625,0.00275073,0.18749,0.0608661,0.0020789,-0.0288897,0.0174907,-0.00730276,0.015137,0,0,0,0,0,0,0,0,0,-0.00182239,-0.00434405,0.000389496,0.13635,-0.000759045,-0.000912533,0.00135016,0.0346866,-0.0173644,-0.12289,-0.0353162,0.00133421
566,0.000344161,-0.0719051,0.0524312,0.300959,0.0802714,0.0802714,0.0802714,0.0802714,0.0802714,0.0802714,0.0802714,0.0802714,0.0802714,0.831723,0.77537,0.0197286,1.13726,-0.0719051,0.0524312,0.300959,0.0241042,-0.0515721,0.0518875,0.0548826,-0.0417652,0.0571178,0.0802714,1.05865,-7.04566,-0.271646,0.66727,1.04758,-1.31185,-1.35717,6.06998,-0.0503951,0.386421,0.327863,-1.39068,-1.10612,0.0823584,2.44689,0.0241042,-0.0515721,0.0518875,0.0548826,-0.0417652,0.0571178,0,0,0,0,0,0,0,0,0,0.0170622,0.00399834,-0.00141291,0.908307,-0.00273617,-0.00181927,-0.00139301,-0.108666,-0.698921,-0.920907,0.111527,-0.000718066
567,0.000344161,-0.0166591,-0.00588155,0.0854542,0.0914875,0.0914875,0.0914875,0.0914875,0.0914875,0.0914875,0.0914875,0.0914875,0.0914875,0.176332,-0.857823,-0.0085125,0.8758,-0.0166591,-0.00588155,0.0854542,0.0532471,-0.0028948,-0.00382233,0.0275919,-0.0115719,0.0409721,0.0914875,-1.85718,0.402321,-0.163913,-0.151885,-0.334775,-0.0448095,-3.26688,-0.0508869,-0.0631855,-0.686213,0.430796,2.19999,0.84398,-0.000559349,0.981436,0.0532471,-0.0028948,-0.00382233,0.0275919,-0.0115719,0.0409721,0,0,0,0,0,0,0,0,0,-0.0050621,-0.00694375,-9.47236e-05,0.528087,-0.00129472,-0.00157335,0.00189793,0.0627179,-0.190949,-0.528573,-0.0585257,0.00227796
568,0.000344161,3.9149,1.12022,3.5079,0.00144667,0.00144667,0.00144667,0.00144667,0.00144667,0.00144667,0.00144667,0.00144667,0.00144667,0.108934,-0.994848,-0.0985533,1.00564,3.9149,1.12022,3.5079,-0.552044,-0.383053,0.22081,-0.0111799,-0.0480013,0.0519495,0.00144667,-20.4105,-1.68153,-0.0923428,0.0649304,-20.4137,0.0234047,-0.084037,18.1804,-0.000955597,-0.0248866,-0.0097485,0.0506698,-1.16026,-0.0128957,-3.47454,-0.552044,-0.383053,0.22081,-0.0111799,-0.0480013,0.0519495,0,0,0,0,0,0,0,0,0,-0.0467634,-0.0806563,0.00611796,0.459974,-0.00935234,-0.0108719,0.0240958,0.0873492,-0.148913,-0.457532,-0.0879267,0.0243518
569,0.000344161,-0.0379477,-0.0422385,0.0534252,0.0664028,0.0664028,0.0664028,0.0664028,0.0664028,0.0664028,0.0664028,0.0664028,0.0664028,-0.359671,0.851742,-0.0335972,0.925179,-0.0379477,-0.0422385,0.0534252,-0.00958735,-0.0291825,0.0244236,0.000442326,0.0106702,0.00684941,0.0664028,-4.43855,-7.49938,0.124999,-0.0441313,1.96882,0.77907,0.44422,5.5685,0.076872,-0.753659,0.113841,-0.674154,0.840029,-0.00281698,0.176509,-0.00958735,-0.0291825,0.0244236,0.000442326,0.0106702,0.00684941,0,0,0,0,0,0,0,0,0,-0.00554411,-0.0172021,-3.19274e-05,0.145339,0.000357768,0.000990092,0.00542517,-0.0209002,-0.0226674,-0.137304,0.0221453,0.00505876
570,0.000344161,0.811741,0.0907888,2.02304,0.00144103,0.00144103,0.00144103,0.00144103,0.00144103,0.00144103,0.00144103,0.00144103,0.00144103,-0.558762,0.546862,-0.098559,0.788028,0.811741,0.0907888,2.02304,-1.44137,-0.122916,-0.0384436,-0.496572,0.0599527,0.258699,0.00144103,-5.57051,-19.0077,-1.50412,-9.31012,6.03013,0.0217388,-0.285157,12.1658,-0.0419153,2.10466,0.0085339,-0.000507843,7.11467,-0.00580871,-1.73738,-1.44137,-0.122916,-0.0384436,-0.496572,0.0599527,0.258699,0,0,0,0,0,0,0,0,0,-0.00573591,-0.0266393,-0.00901875,0.0522611,-0.00127941,-0.00725165,0.00572774,0.00823643,-0.00534977,-0.0524281,-0.00755156,0.00968462
571,0.000344161,0.0406864,0.0492752,0.227478,0.0351326,0.0351326,0.0351326,0.0351326,0.0351326,0.0351326,0.0351326,0.0351326,0.0351326,0.464516,-0.964867,-0.0418372,1.07168,0.0406864,0.0492752,0.227478,0.0769901,-0.0239066,0.0235291,0.00697923,-0.00123024,0.0559018,0.0351326,-6.97037,10.0465,-0.248667,0.229924,-6.7071,-0.366823,-2.53072,-3.38007,-0.0131586,-0.624433,4.09009e-05,1.40698,0.345234,-0.0326183,0.89627,0.0769901,-0.0239066,0.0235291,0.00697923,-0.00123024,0.0559018,0,0,0,0,0,0,0,0,0,-0.0314657,-0.0265327,0.000585907,0.737952,-0.00559025,-0.00331164,0.00790327,0.111123,-0.366169,-0.741385,-0.111135,0.00805058
572,0.000344161,-0.0212048,-0.0380429,0.062719,0.0755884,0.0755884,0.0755884,0.0755884,0.0755884,0.0755884,0.0755884,0.0755884,0.0755884,-0.0721674,0.79607,0.0244116,0.799707,-0.0212048,-0.0380429,0.062719,0.0230815,0.00757237,0.0510597,-0.00999397,0.00401747,-0.00524056,0.0755884,4.8065,4.83882,-0.104662,-1.01758,-3.46686,0.276031,-2.9437,-1.35076,0.0256421,-0.788877,-0.265851,2.27547,1.8445,0.0140245,0.605514,0.0230815,0.00757237,0.0510597,-0.00999397,0.00401747,-0.00524056,0,0,0,0,0,0,0,0,0,0.00737838,0.0185471,0.000904509,0.329286,-0.000914538,-0.0018754,-0.00552254,-0.0224562,-0.0883214,-0.326015,0.0198378,-0.00555686
573,0.000344161,0.131823,-0.11011,0.672084,0.0582269,0.0582269,0.0582269,0.0582269,0.0582269,0.0582269,0.0582269,0.0582269,0.0582269,0.894392,0.190396,-0.0417731,0.915387,0.131823,-0.11011,0.672084,0.123244,-0.140281,-0.0231094,-0.0773583,0.02632,0.0889396,0.0582269,-0.402606,1.01669,0.735656,1.0137,3.4198,-0.297793,-5.74601,-4.56832,2.3956,-5.19125,0.309215,2.70837,4.28766,-0.0816358,2.36555,0.123244,-0.140281,-0.0231094,-0.0773583,0.02632,0.0889396,0,0,0,0,0,0,0,0,0,-0.0431763,-0.00375779,0.00646446,1.00734,0.00105116,-0.000510709,0.00923023,-0.0439232,-0.810969,-1.01055,0.0472786,-0.00232446
574,0.000344161,0.0790875,-0.00590992,0.302093,0.0331344,0.0331344,0.0331344,0.0331344,0.0331344,0.0331344,0.0331344,0.0331344,0.0331344,0.269115,0.71883,0.0215363,0.767856,0.0790875,-0.00590992,0.302093,-0.0515951,0.00951621,0.0931587,0.0143228,-0.0355723,0.0322742,0.0331344,4.83448,-7.66258,-0.8101,-2.07763,6.67307,-0.13521,3.00296,0.910423,0.29888,0.790342,-0.34258,-4.53024,1.2932,0.0355552,1.22518,-0.0515951,0.00951621,0.0931587,0.0143228,-0.0355723,0.0322742,0,0,0,0,0,0,0,0,0,0.0126914,0.0179561,-0.00485486,0.624273,-0.00130611,-0.00315097,-0.00439235,-0.0413058,-0.252113,-0.624693,0.0375243,-0.00561922
575,0.000344161,0.0146323,0.0146565,0.511001,0.0353609,0.0353609,0.0353609,0.0353609,0.0353609,0.0353609,0.0353609,0.0353609,0.0353609,0.55623,-0.624658,-0.0646391,0.838909,0.0146323,0.0146565,0.511001,0.139549,0.0263983,0.0974579,0.0274751,-0.00149441,0.0695395,0.0353609,-7.64765,12.9171,-2.80864,10.4222,-12.5793,-0.0729193,-6.45566,-0.352364,-1.06614,-14.6267,0.163822,5.58139,4.18985,-0.0740334,0.363276,0.139549,0.0263983,0.0974579,0.0274751,-0.00149441,0.0695395,0,0,0,0,0,0,0,0,0,-0.0545632,-0.0276737,-0.0199179,0.83569,-0.00542351,-0.00790458,0.00467352,0.0669967,-0.467777,-0.835445,-0.0653734,0.00984436
576,0.000344161,-0.0444081,-0.0159488,0.0313324,0.0953135,0.0953135,0.0953135,0.0953135,0.0953135,0.0953135,0.0953135,0.0953135,0.0953135,-0.402356,0.764874,-0.00468655,0.864259,-0.0444081,-0.0159488,0.0313324,0.0110485,-0.0119338,0.0465908,0.00419763,0.00751442,0.00215752,0.0953135,-0.595958,-0.845738,-0.0144921,-0.0699901,0.507233,0.57897,0.555763,0.382913,0.0103147,-0.0923485,0.187129,-0.70463,0.178287,0.00271991,0.117534,0.0110485,-0.0119338,0.0465908,0.00419763,0.00751442,0.00215752,0,0,0,0,0,0,0,0,0,-0.00121204,-0.00227202,-0.000217683,0.124384,-0.000311429,-4.6575e-05,0.000725084,-0.00666663,-0.0184524,-0.118129,0.00861306,0.00067691
577,0.000344161,0.141696,0.046674,0.234966,0.0975818,0.0975818,0.0975818,0.0975818,0.0975818,0.0975818,0.0975818,0.0975818,0.0975818,0.853617,0.591698,-0.0024182,1.03864,0.141696,0.046674,0.234966,0.0279662,-0.0708213,0.0426865,0.0334123,-0.0597029,0.0669741,0.0975818,-0.0565149,1.41598,0.130598,-0.556238,-0.274905,-1.25562,-2.22368,-1.28277,0.0681821,-0.444102,0.643591,-1.06542,0.953666,0.0277655,3.05414,0.0279662,-0.0708213,0.0426865,0.0334123,-0.0597029,0.0669741,0,0,0,0,0,0,0,0,0,-0.00317972,-0.000336342,0.000822563,0.933397,-0.000379646,-0.000224798,0.000314374,-0.0960244,-0.738978,-0.945526,0.101863,0.000280099
578,0.000344161,-0.161663,-0.0567908,0.817626,0.00747751,0.00747751,0.00747751,0.00747751,0.00747751,0.00747751,0.00747751,0.00747751,0.00747751,-0.138173,-0.986022,-0.0925225,0.999946,-0.161663,-0.0567908,0.817626,0.219793,-0.135482,0.136211,-0.0466261,-0.00612974,0.00613976,0.00747751,-17.0749,-17.3566,-0.241499,-0.336153,-17.5711,0.256784,-0.155313,35.0893,0.0063936,0.95839,-0.00740616,0.191351,-0.565446,-0.020017,-0.853664,0.219793,-0.135482,0.136211,-0.0466261,-0.00612974,0.00613976,0,0,0,0,0,0,0,0,0,-0.0262695,-0.064765,0.00517631,0.267229,-0.00616126,-0.00894612,0.0193095,0.0603486,-0.0611169,-0.263299,-0.0604839,0.0194413
579,0.000344161,-0.163342,0.0440886,0.117151,0.027274,0.027274,0.027274,0.027274,0.027274,0.027274,0.027274,0.027274,0.027274,-0.600794,0.923602,-0.072726,1.10421,-0.163342,0.0440886,0.117151,-0.00590503,0.0692845,-0.00460052,-0.0152115,-0.0199696,-0.00483561,0.027274,-6.07245,-13.2467,0.502011,-0.841414,-2.79229,0.547167,0.832569,16.2023,-0.0990683,2.12041,-0.0320573,0.140172,-1.32309,-0.0293501,-1.08989,-0.00590503,0.0692845,-0.00460052,-0.0152115,-0.0199696,-0.00483561,0,0,0,0,0,0,0,0,0,-0.00388197,-0.023207,0.000601918,0.0412759,0.000998205,0.00511104,0.00661339,-0.0177648,-0.00136962,-0.0358502,0.0172445,0.00701386
580,0.000344161,0.239529,0.0300702,1.36179,0.00205293,0.00205293,0.00205293,0.00205293,0.00205293,0.00205293,0.00205293,0.00205293,0.00205293,-0.506651,0.844955,-0.0979471,0.99007,0.239529,0.0300702,1.36179,-0.364948,0.153266,-0.0799422,-0.246075,-0.0128294,0.0285497,0.00205293,-9.4456,-25.9652,0.401458,-0.415981,3.75457,0.0569814,-0.215146,21.9711,0.0807595,-0.913509,0.000308979,-0.0382642,1.29942,-0.00613344,-1.10838,-0.364948,0.153266,-0.0799422,-0.246075,-0.0128294,0.0285497,0,0,0,0,0,0,0,0,0,-0.00831487,-0.037568,0.00197659,0.0736547,0.00117821,0.00357065,0.0106582,-0.015704,-0.00806054,-0.0738843,0.0155788,0.0115968
581,0.000344161,-0.0479358,-0.0300951,0.0123929,0.0824902,0.0824902,0.0824902,0.0824902,0.0824902,0.0824902,0.0824902,0.0824902,0.0824902,-0.180551,0.739273,0.0175098,0.761203,-0.0479358,-0.0300951,0.0123929,0.0280301,0.00047148,0.00853157,0.00266764,-0.0041025,0.00856483,0.0824902,2.94088,4.22751,0.153944,0.164393,-4.15157,0.0623191,-5.21621,-0.0280091,-0.0396972,-1.16529,-0.188437,4.71533,1.03099,0.00713345,0.488485,0.0280301,0.00047148,0.00853157,0.00266764,-0.0041025,0.00856483,0,0,0,0,0,0,0,0,0,0.00367394,0.0114435,0.00225392,0.246651,-0.000429379,-0.000709769,-0.00358619,-0.00397941,-0.0579494,-0.245942,0.00205402,-0.00332256
582,0.000344161,-0.00581455,-0.0280489,0.674018,0.0632216,0.0632216,0.0632216,0.0632216,0.0632216,0.0632216,0.0632216,0.0632216,0.0632216,0.888098,0.013743,0.0204585,0.88844,-0.00581455,-0.0280489,0.674018,0.0680146,-0.0303804,-0.0150757,-0.0529185,0.0189011,0.110218,0.0632216,0.0279396,0.862634,-0.0339289,-0.444162,-1.4809,-0.0922222,-3.97739,0.624076,-0.975631,0.364426,0.00248012,0.425359,0.107785,0.143271,2.87802,0.0680146,-0.0303804,-0.0150757,-0.0529185,0.0189011,0.110218,0,0,0,0,0,0,0,0,0,0.0198403,0.00126335,-0.00093763,1.02201,-0.000943379,0.000294537,-0.00435916,-0.00212147,-0.809014,-1.02308,0.00233528,0.00205103
583,0.000344161,0.0252161,-0.0145552,0.559337,0.0452899,0.0452899,0.0452899,0.0452899,0.0452899,0.0452899,0.0452899,0.0452899,0.0452899,0.820807,0.95471,-0.035655,1.25955,0.0252161,-0.0145552,0.559337,0.0193994,-0.0373214,-0.026268,0.0502969,-0.0248508,0.0618072,0.0452899,-1.98972,13.9614,0.133639,-0.431658,-2.85166,-1.13162,-1.63687,-11.135,0.00233757,-0.331621,0.0998466,-0.605186,0.777835,-0.0467261,1.68271,0.0193994,-0.0373214,-0.026268,0.0502969,-0.0248508,0.0618072,0,0,0,0,0,0,0,0,0,-0.032759,-0.00765627,0.000992829,0.897198,0.00372162,-2.96569e-05,0.00245848,-0.120815,-0.668105,-0.908777,0.121565,0.00227071
584,0.000344161,-0.336655,0.375832,0.75544,0.0203254,0.0203254,0.0203254,0.0203254,0.0203254,0.0203254,0.0203254,0.0203254,0.0203254,0.412085,0.660644,-0.0760323,0.782334,-0.336655,0.375832,0.75544,0.286383,-0.199202,0.180908,0.0113027,-0.025866,-0.0839229,0.0203254,-13.0479,29.6786,4.53093,-15.5026,-43.1205,0.324013,-4.0308,13.7785,-1.88686,24.6705,-0.257702,3.62912,-9.54374,-0.0745908,-0.353753,0.286383,-0.199202,0.180908,0.0113027,-0.025866,-0.0839229,0,0,0,0,0,0,0,0,0,-0.0578737,-0.0467358,0.0336509,0.747001,0.0034008,0.0096664,0.00769406,-0.0481637,-0.35305,-0.741952,0.045328,0.0162793
585,0.000344161,-0.134311,0.0356922,0.302442,0.0263368,0.0263368,0.0263368,0.0263368,0.0263368,0.0263368,0.0263368,0.0263368,0.0263368,-0.213528,-0.642623,0.0275857,0.677731,-0.134311,0.0356922,0.302442,0.0944348,-0.0188883,0.0960178,0.0935794,-0.0137863,0.0288302,0.0263368,3.5066,3.03051,-1.22042,-7.33385,-14.5732,-2.09503,-19.8685,11.677,0.486052,13.3786,1.1355,19.3384,-6.08042,0.0271137,0.227662,0.0944348,-0.0188883,0.0960178,0.0935794,-0.0137863,0.0288302,0,0,0,0,0,0,0,0,0,0.00493832,0.0131168,-0.0132033,0.199841,-0.000837931,0.00081027,-0.00199025,-0.0120536,-0.0488756,-0.219831,0.0232708,-0.00460868
586,0.000344161,-0.121248,0.0687968,0.079279,0.0170524,0.0170524,0.0170524,0.0170524,0.0170524,0.0170524,0.0170524,0.0170524,0.0170524,-0.548466,0.802989,0.0829476,0.975954,-0.121248,0.0687968,0.079279,-0.0392674,-0.0339409,0.0498195,0.107944,-0.02854,-0.0327556,0.0170524,7.70136,13.0717,-0.3052,1.59549,-4.75888,0.20567,0.344036,-8.19162,0.210594,-0.696094,0.0238136,-0.407268,-0.968191,-0.00345868,-0.0160468,-0.0392674,-0.0339409,0.0498195,0.107944,-0.02854,-0.0327556,0,0,0,0,0,0,0,0,0,0.00473516,0.0291438,-0.00105066,0.0628574,-0.0011454,-0.00234075,-0.00757394,-0.0100431,-0.00563238,-0.0603025,0.00999582,-0.0093477
587,0.000344161,0.138785,-0.0494428,0.044815,0.0265633,0.0265633,0.0265633,0.0265633,0.0265633,0.0265633,0.0265633,0.0265633,0.0265633,-0.432821,-0.666304,-0.0734367,0.797927,0.138785,-0.0494428,0.044815,0.0129894,-0.0586088,0.0261421,-0.0240897,-0.0130973,0.0108902,0.0265633,-7.64811,-13.5641,0.952251,3.72973,9.58902,0.135506,-0.367229,3.8363,0.246209,-0.444683,-0.110918,0.132774,-3.2356,-0.00612329,0.18964,0.0129894,-0.0586088,0.0261421,-0.0240897,-0.0130973,0.0108902,0,0,0,0,0,0,0,0,0,-0.00823698,-0.0296277,0.006217,0.103779,-7.04266e-06,0.00271942,0.00965856,-0.00531875,-0.0153809,-0.102162,0.0040786,0.0085718
588,0.000344161,0.736841,-0.643196,1.90687,0.0241314,0.0241314,0.0241314,0.0241314,0.0241314,0.0241314,0.0241314,0.0241314,0.0241314,0.908216,0.286432,-0.0758686,0.95533,0.736841,-0.643196,1.90687,0.0528992,0.0637531,-0.01091,0.254247,0.0620441,-0.0512235,0.0241314,-1.25411,8.14881,1.58222,-4.67967,2.49949,-0.258581,-2.04917,-11.3851,2.9956,-7.454,0.300216,0.936053,12.7769,-0.113433,-0.793747,0.0528992,0.0637531,-0.01091,0.254247,0.0620441,-0.0512235,0,0,0,0,0,0,0,0,0,-0.0764451,-0.00817988,0.0134273,0.996189,0.00406256,0.00303243,0.0140754,-0.0660991,-0.81912,-0.998884,0.0697217,-0.00299711
589,0.000344161,-0.312447,0.0885961,1.20736,0.0123102,0.0123102,0.0123102,0.0123102,0.0123102,0.0123102,0.0123102,0.0123102,0.0123102,0.444203,0.892748,0.0876898,1.001,-0.312447,0.0885961,1.20736,-0.0828841,-0.038913,0.0169907,0.039592,-0.0158625,0.0333896,0.0123102,15.0925,-21.6132,-1.36712,1.04016,9.45612,-0.170071,-0.558567,12.4696,0.153879,-3.0801,-0.0196636,0.285965,1.95134,0.069613,-0.934753,-0.0828841,-0.038913,0.0169907,0.039592,-0.0158625,0.0333896,0,0,0,0,0,0,0,0,0,0.0632686,0.0573873,-0.00631717,0.733336,-0.00863045,-0.00774314,-0.0166935,-0.0926941,-0.360917,-0.734867,0.0923388,-0.0171459
590,0.000344161,-0.142495,0.00166873,0.110592,0.0133106,0.0133106,0.0133106,0.0133106,0.0133106,0.0133106,0.0133106,0.0133106,0.0133106,-0.548641,0.986689,-0.0196377,1.12914,-0.142495,0.00166873,0.110592,0.0636293,-0.0749696,0.170308,0.0339231,-0.0123158,0.00579214,0.0133106,-1.86604,-4.30065,0.0301694,-0.0474346,-1.97192,1.63219,-0.648645,6.41507,-0.00121143,0.0612676,-0.0083669,0.432562,-0.0155017,-0.0056179,0.105491,0.0636293,-0.0749696,0.170308,0.0339231,-0.0123158,0.00579214,0,0,0,0,0,0,0,0,0,-0.00193682,-0.00697029,-0.00188998,0.0659433,0.000236293,0.00144198,0.00220532,-0.0282631,-0.00187125,-0.0479183,0.0280562,0.00204263
591,0.000344161,0.334079,-0.0601821,0.540574,0.0648462,0.0648462,0.0648462,0.0648462,0.0648462,0.0648462,0.0648462,0.0648462,0.0648462,0.935154,0.595836,0.0165643,1.10897,0.334079,-0.0601821,0.540574,0.0734916,-0.0775942,-0.0645294,0.0340555,-0.0328856,0.0574423,0.0648462,0.189958,-6.14176,-0.195347,2.88899,0.370614,-1.31739,0.888926,5.43707,-0.244415,0.856794,1.15759,-2.13534,-3.6856,0.0864105,0.705837,0.0734916,-0.0775942,-0.0645294,0.0340555,-0.0328856,0.0574423,0,0,0,0,0,0,0,0,0,0.0146844,0.00109001,-0.00187045,0.942086,-0.00233956,-0.000858961,-0.00127904,-0.101738,-0.816103,-0.955905,0.112985,0.000492021
592,0.000344161,0.0484467,0.0182747,0.414156,0.0484748,0.0484748,0.0484748,0.0484748,0.0484748,0.0484748,0.0484748,0.0484748,0.0484748,0.799687,-0.931707,0.0515252,1.22892,0.0484467,0.0182747,0.414156,0.103974,-0.0649444,-0.0588531,0.027284,0.01019,0.0597111,0.0484748,3.33791,-18.3172,0.316466,-0.814724,4.07527,-0.947706,-0.87951,14.1935,-0.00123532,-0.076413,-0.0925231,-0.391737,0.872862,0.123147,0.857092,0.103974,-0.0649444,-0.0588531,0.027284,0.01019,0.0597111,0,0,0,0,0,0,0,0,0,0.0453135,0.012997,0.00167499,0.892284,0.00516042,0.00084023,-0.0040822,0.121845,-0.649293,-0.90235,-0.122668,-0.00329816
593,0.000344161,0.0997734,-0.00738093,0.0795712,0.0308953,0.0308953,0.0308953,0.0308953,0.0308953,0.0308953,0.0308953,0.0308953,0.0308953,-0.151504,-0.917112,-0.0691047,0.932107,0.0997734,-0.00738093,0.0795712,0.126259,0.0649052,-0.0302296,0.00822544,-0.00339174,-0.0157642,0.0308953,-12.5171,-14.6211,-0.662631,-1.47666,-2.24089,0.619612,-0.458912,16.7622,0.0814419,1.66807,-0.0128405,0.108226,-0.184032,-0.0194125,0.271115,0.126259,0.0649052,-0.0302296,0.00822544,-0.00339174,-0.0157642,0,0,0,0,0,0,0,0,0,-0.0191721,-0.0477199,-0.000338912,0.264901,-0.00366087,-0.00563835,0.0146826,0.0447711,-0.0608776,-0.259007,-0.0449334,0.0140584
594,0.000344161,0.617895,0.114866,3.39923,0.00741434,0.00741434,0.00741434,0.00741434,0.00741434,0.00741434,0.00741434,0.00741434,0.00741434,0.663879,-0.540556,-0.0925857,0.861109,0.617895,0.114866,3.39923,-0.605396,-0.0435637,-0.0557175,0.281196,-0.127629,0.183764,0.00741434,-6.39133,5.87808,-3.30709,10.2944,-3.25414,-0.0330592,-1.46211,-3.24184,-0.976206,-14.6658,0.0313715,1.37508,4.25651,-0.0523386,-3.3122,-0.605396,-0.0435637,-0.0557175,0.281196,-0.127629,0.183764,0,0,0,0,0,0,0,0,0,-0.083627,-0.0262602,-0.0239176,0.895822,-0.00790465,-0.00958895,0.00524839,0.0703946,-0.56716,-0.89671,-0.0713571,0.00938057
595,0.000344161,0.0312603,-0.0868759,0.970646,0.0134241,0.0134241,0.0134241,0.0134241,0.0134241,0.0134241,0.0134241,0.0134241,0.0134241,0.160857,-0.857755,-0.0865759,0.876991,0.0312603,-0.0868759,0.970646,0.105288,0.0636139,0.0180817,-0.033422,0.0549111,0.0234179,0.0134241,-18.9053,3.44575,-1.65067,-1.63355,-3.64192,-0.00769484,-0.808182,0.164906,-0.47142,-5.62138,0.0929939,0.605774,7.34181,-0.0383468,-0.768238,0.105288,0.0636139,0.0180817,-0.033422,0.0549111,0.0234179,0,0,0,0,0,0,0,0,0,-0.0451867,-0.0717079,-0.00606931,0.515364,-0.00596412,-0.00980124,0.0197678,0.058948,-0.183829,-0.51526,-0.057469,0.0222174
596,0.000344161,1.9767,3.21819,4.89432,0.0059431,0.0059431,0.0059431,0.0059431,0.0059431,0.0059431,0.0059431,0.0059431,0.0059431,0.723719,-0.39203,-0.0940569,0.828435,1.9767,3.21819,4.89432,-0.345522,-0.108353,0.118675,0.41254,0.178607,0.0296223,0.0059431,-1.85128,-37.3869,-1.93326,-14.2807,23.8515,0.057336,-1.42132,11.5587,-1.61047,-14.7932,0.150064,1.13513,25.8556,-0.0514905,-4.60813,-0.345522,-0.108353,0.118675,0.41254,0.178607,0.0296223,0,0,0,0,0,0,0,0,0,-0.0899105,-0.00704179,-0.0276845,0.943833,-0.00798398,0.00726842,-0.00204743,0.0635607,-0.632036,-0.942073,-0.060274,0.0038329
597,0.000344161,-0.0825815,-0.0804828,0.450093,0.0574523,0.0574523,0.0574523,0.0574523,0.0574523,0.0574523,0.0574523,0.0574523,0.0574523,0.857664,0.942548,0.0117887,1.27441,-0.0825815,-0.0804828,0.450093,-0.0148458,-0.0316306,-0.0124969,0.068957,-0.0183535,0.0609368,0.0574523,0.605138,-4.80754,-0.0413595,0.166966,0.731254,-1.40814,-1.75938,4.15887,-0.0115757,0.127412,0.15138,-1.16036,-0.213895,0.0724812,2.46965,-0.0148458,-0.0316306,-0.0124969,0.068957,-0.0183535,0.0609368,0,0,0,0,0,0,0,0,0,0.00983582,0.0020502,-0.000146506,0.902902,-0.00201942,-0.000583395,-0.000614353,-0.120238,-0.703199,-0.917108,0.121568,-0.000234169
598,0.000344161,0.108482,-0.035069,-0.0321054,0.0491118,0.0491118,0.0491118,0.0491118,0.0491118,0.0491118,0.0491118,0.0491118,0.0491118,-0.622418,-0.80687,0.0508882,1.02031,0.108482,-0.035069,-0.0321054,-0.02592,-0.0109523,-0.00139785,0.015844,0.0196078,0.00549805,0.0491118,3.99932,11.6569,0.2642,-0.808519,-2.44386,0.353333,0.0177083,-9.32157,0.327982,1.90306,0.0480888,-0.838165,-1.05947,0.120995,0.852562,-0.02592,-0.0109523,-0.00139785,0.015844,0.0196078,0.00549805,0,0,0,0,0,0,0,0,0,0.00146627,0.0147396,0.000848651,0.0390271,2.68277e-05,0.00168383,-0.00340824,0.00805722,-0.00169784,-0.0355077,-0.00738026,-0.0044949
599,0.000344161,-0.000734329,0.058212,0.646876,0.041019,0.041019,0.041019,0.041019,0.041019,0.041019,0.041019,0.041019,0.041019,0.773774,0.737466,0.058981,1.07054,-0.000734329,0.058212,0.646876,0.0538628,0.0499922,0.0247116,0.038151,-0.0136461,0.0340177,0.041019,4.13674,-19.1477,-1.20364,2.12426,4.05113,-0.815062,-0.591371,15.0973,-0.0778698,0.978044,0.205084,-0.784155,-3.16052,0.128854,0.72865,0.0538628,0.0499922,0.0247116,0.038151,-0.0136461,0.0340177,0,0,0,0,0,0,0,0,0,0.0521644,0.0159756,-0.00583028,0.901514,-0.00653527,-0.00570621,-0.00517601,-0.101581,-0.650039,-0.909418,0.103496,-0.00416306
600,0.000344161,-0.149131,-0.173728,-0.0571686,0.00730608,0.00730608,0.00730608,0.00730608,0.00730608,0.00730608,0.00730608,0.00730608,0.00730608,-0.409125,0.463673,-0.0186733,0.618647,-0.149131,-0.173728,-0.0571686,0.102851,-0.059143,-0.246761,-0.0938962,-0.289218,0.00574523,0.00730608,-0.523601,12.905,-0.522368,6.14004,-8.0829,-1.47103,7.87151,-4.67292,-0.533144,-0.964389,-1.65038,-7.02115,-5.00193,0.0150644,-0.793185,0.102851,-0.059143,-0.246761,-0.0938962,-0.289218,0.00574523,0,0,0,0,0,0,0,0,0,-0.00180002,-0.00091877,-0.00755259,0.0660612,-0.000679383,0.00173748,-0.00195022,0.0183436,-0.0135439,-0.0832391,-0.0377396,0.00128902
601,0.000344161,-0.0457687,-0.127795,2.49041,0.0104919,0.0104919,0.0104919,0.0104919,0.0104919,0.0104919,0.0104919,0.0104919,0.0104919,0.809322,0.934708,-0.0895081,1.23963,-0.0457687,-0.127795,2.49041,-0.107751,0.0550414,-0.0618134,-0.0713254,0.0052042,0.10626,0.0104919,-5.46472,27.4561,0.386584,-1.36361,-5.80718,-0.211355,0.00447957,-21.6032,0.0876731,-0.862033,0.0243598,0.0277348,2.35344,-0.0581963,-2.52262,-0.107751,0.0550414,-0.0618134,-0.0713254,0.0052042,0.10626,0,0,0,0,0,0,0,0,0,-0.0810634,-0.0215069,0.00281042,0.902128,0.0101019,0.00160584,0.00643719,-0.119725,-0.660334,-0.90486,0.120021,0.00659577
602,0.000344161,-0.0247203,0.0314748,0.052325,0.0915328,0.0915328,0.0915328,0.0915328,0.0915328,0.0915328,0.0915328,0.0915328,0.0915328,-0.303835,0.854257,0.00846724,0.906721,-0.0247203,0.0314748,0.052325,0.0193224,-0.0133056,0.044651,0.00424439,0.00548577,0.00727484,0.0915328,1.19353,2.04488,-0.029903,-0.0719909,-0.561762,0.897013,0.232284,-1.4584,-0.0255535,0.262352,0.119,-0.498818,-0.221836,0.00429297,0.214209,0.0193224,-0.0133056,0.044651,0.00424439,0.00548577,0.00727484,0,0,0,0,0,0,0,0,0,0.000847407,0.00467606,-8.04844e-05,0.176164,-0.000541108,-0.000351601,-0.00149475,-0.0231042,-0.0309988,-0.166747,0.024349,-0.00133037
603,0.000344161,-0.610624,0.324462,2.83217,0.00986328,0.00986328,0.00986328,0.00986328,0.00986328,0.00986328,0.00986328,0.00986328,0.00986328,0.990137,0.893001,-0.0485182,1.33423,-0.610624,0.324462,2.83217,0.0332672,-0.0726248,0.0104065,0.32818,0.194467,0.116513,0.00986328,0.00303285,0.494014,0.0132809,-2.25932,-0.113595,-1.08779,9.64412,0.230205,0.191452,-2.70182,0.431354,-2.93811,4.63668,0.413588,-9.53817,0.0332672,-0.0726248,0.0104065,0.32818,0.194467,0.116513,0,0,0,0,0,0,0,0,0,-0.045285,-0.00107162,0.00277212,0.919894,0.0049966,-0.00336556,0.00134505,-0.118293,-0.831918,-0.930668,0.124551,0.00139739
604,0.000344161,-0.0230194,0.0565006,-0.0429927,0.0892258,0.0892258,0.0892258,0.0892258,0.0892258,0.0892258,0.0892258,0.0892258,0.0892258,-0.61045,-0.28634,0.00956804,0.674338,-0.0230194,0.0565006,-0.0429927,0.0229137,-0.0238579,0.00392866,0.0244256,-0.0344949,-0.0119318,0.0892258,0.168904,-0.415641,-0.12454,-0.639284,0.467243,-0.172253,-2.85235,-0.0285817,0.101486,0.14579,-0.139762,1.81894,0.436994,0.0120547,1.0764,0.0229137,-0.0238579,0.00392866,0.0244256,-0.0344949,-0.0119318,0,0,0,0,0,0,0,0,0,-0.000418827,0.000592337,-0.000867946,0.0140773,-0.000453809,-0.00061603,0.000262806,-0.00890333,-0.000868008,-0.0157605,0.00716076,-0.000366138
605,0.000344161,-0.139879,-0.0573621,0.0616653,0.0486265,0.0486265,0.0486265,0.0486265,0.0486265,0.0486265,0.0486265,0.0486265,0.0486265,-0.36228,0.584793,0.0513735,0.689832,-0.139879,-0.0573621,0.0616653,0.0204731,-0.00450709,0.0537195,0.0377001,0.0390618,0.015795,0.0486265,4.67338,-0.814494,1.59532,6.71976,-8.32929,-0.602658,-11.8343,9.28367,0.280345,-12.5398,-0.393924,11.6088,5.87742,0.0208459,0.163859,0.0204731,-0.00450709,0.0537195,0.0377001,0.0390618,0.015795,0,0,0,0,0,0,0,0,0,0.005512,0.017644,0.0143214,0.120826,0.000644049,0.00158668,-0.00423501,0.0207102,-0.022445,-0.126315,-0.0242588,-0.00564203
606,0.000344161,-0.889612,0.79217,36.744,0.000814443,0.000814443,0.000814443,0.000814443,0.000814443,0.000814443,0.000814443,0.000814443,0.000814443,0.873769,0.937098,0.0991856,1.28509,-0.889612,0.79217,36.744,0.601103,-0.221277,-0.0675964,0.30778,0.0606852,0.0977286,0.000814443,3.43793,-23.6814,-0.201027,1.86212,3.80908,-0.0118879,0.0530323,20.7619,-0.24649,2.71018,0.00258224,-0.00470448,-5.36447,0.0590776,-36.7923,0.601103,-0.221277,-0.0675964,0.30778,0.0606852,0.0977286,0,0,0,0,0,0,0,0,0,0.0894108,0.0152831,-0.00261946,0.916998,-0.0125659,-0.00160357,-0.00460562,-0.12099,-0.718824,-0.917793,0.121623,-0.00412804
607,0.000344161,0.116394,-0.0372086,1.088,0.0328498,0.0328498,0.0328498,0.0328498,0.0328498,0.0328498,0.0328498,0.0328498,0.0328498,0.91545,-0.348613,0.0671502,0.98188,0.116394,-0.0372086,1.088,0.0133252,-0.100723,-0.0198135,0.207649,0.081708,0.0824689,0.0328498,1.10033,-13.5923,1.55991,-8.75567,-0.718151,-0.510212,-2.06389,14.194,-2.47553,-6.77844,-0.638382,0.530026,15.5713,0.200411,0.445865,0.0133252,-0.100723,-0.0198135,0.207649,0.081708,0.0824689,0,0,0,0,0,0,0,0,0,0.065196,0.00657368,0.011125,0.984218,0.00401001,0.00346689,-0.010334,0.0793854,-0.820713,-0.989518,-0.0849521,0.00241979
608,0.000344161,-0.0988598,0.0842927,0.191225,0.0453715,0.0453715,0.0453715,0.0453715,0.0453715,0.0453715,0.0453715,0.0453715,0.0453715,0.080351,-0.954629,0.0439312,0.959011,-0.0988598,0.0842927,0.191225,0.0196089,-0.012477,-0.096138,0.0311097,-0.00821877,0.042407,0.0453715,9.2751,2.02872,0.391108,0.29757,7.14769,0.856926,-3.13324,-9.07755,0.0277767,1.09047,0.0862095,2.52954,-1.47233,0.0260435,0.412476,0.0196089,-0.012477,-0.096138,0.0311097,-0.00821877,0.042407,0,0,0,0,0,0,0,0,0,0.0189831,0.035602,-0.000102232,0.444916,0.00261118,0.00388855,-0.0105772,0.0750579,-0.138425,-0.437308,-0.074278,-0.0105293
609,0.000344161,-0.495304,0.074141,3.04256,0.0072297,0.0072297,0.0072297,0.0072297,0.0072297,0.0072297,0.0072297,0.0072297,0.0072297,0.744504,0.644192,0.0927703,0.988876,-0.495304,0.074141,3.04256,0.123203,0.255453,-0.0416794,-0.00916564,0.00545883,0.0995443,0.0072297,6.91795,-25.893,-2.62589,5.98328,6.12143,-0.153667,-0.114547,20.2669,-0.126277,0.791874,0.0643896,-0.117327,-6.8493,0.11216,-2.81069,0.123203,0.255453,-0.0416794,-0.00916564,0.00545883,0.0995443,0,0,0,0,0,0,0,0,0,0.082953,0.0269934,-0.0125761,0.908528,-0.00889585,-0.0111282,-0.00888961,-0.091127,-0.63273,-0.910481,0.0918255,-0.00715388
610,0.000344161,-0.0284963,0.0072937,0.199372,0.0576297,0.0576297,0.0576297,0.0576297,0.0576297,0.0576297,0.0576297,0.0576297,0.0576297,0.266727,0.840622,0.0423703,0.88294,-0.0284963,0.0072937,0.199372,0.0325959,0.0137514,0.0236282,-0.0298221,-0.0139794,0.0152099,0.0576297,8.7146,-6.5204,-0.866697,-0.469107,3.01514,-0.321625,-2.23987,3.53376,0.339415,-3.16403,-0.319004,1.33387,3.62584,0.0529647,0.706631,0.0325959,0.0137514,0.0236282,-0.0298221,-0.0139794,0.0152099,0,0,0,0,0,0,0,0,0,0.0248886,0.0332072,-0.00386031,0.604983,-0.00320801,-0.00466915,-0.00898084,-0.0656137,-0.244791,-0.607963,0.0622839,-0.0101879
611,0.000344161,0.00127286,0.018271,0.19523,0.094829,0.094829,0.094829,0.094829,0.094829,0.094829,0.094829,0.094829,0.094829,0.497025,0.891162,-0.00517103,1.02041,0.00127286,0.018271,0.19523,-0.00258994,-0.0240683,-0.00521851,0.0168107,-0.00327301,0.036245,0.094829,-0.856322,1.40948,0.0792029,-0.00122728,-0.670828,-0.830541,-1.88283,-0.73992,-0.00454962,0.0933527,-0.0546853,0.443651,-0.110396,0.00761105,1.24395,-0.00258994,-0.0240683,-0.00521851,0.0168107,-0.00327301,0.036245,0,0,0,0,0,0,0,0,0,-0.00472995,-0.00336826,0.000443478,0.761974,2.94875e-05,0.000107868,0.000987607,-0.0973125,-0.400132,-0.770332,0.0967329,0.00114558
612,0.000344161,-0.106833,0.0480051,0.569023,0.0229133,0.0229133,0.0229133,0.0229133,0.0229133,0.0229133,0.0229133,0.0229133,0.0229133,0.173558,-0.742011,0.0770867,0.765928,-0.106833,0.0480051,0.569023,0.0559828,-0.0681942,-0.025116,0.0582519,-0.0609055,0.0359316,0.0229133,18.1143,-6.74691,1.53573,12.0388,-2.03359,-0.242798,1.63512,8.88733,0.751866,-5.69655,0.177717,-1.86001,-6.39023,0.0549475,-0.344133,0.0559828,-0.0681942,-0.025116,0.0582519,-0.0609055,0.0359316,0,0,0,0,0,0,0,0,0,0.0407124,0.0688461,0.00600349,0.536539,0.00201047,0.00867184,-0.0179547,0.034449,-0.195487,-0.539218,-0.0332808,-0.0215509
613,0.000344161,0.16374,-0.539944,2.22957,0.018557,0.018557,0.018557,0.018557,0.018557,0.018557,0.018557,0.018557,0.018557,0.981443,-0.373919,-0.00894547,1.0503,0.16374,-0.539944,2.22957,0.131961,-0.0780329,-0.136436,0.0114568,-0.223293,0.17489,0.018557,-0.00108702,-0.714369,0.00118071,3.33666,-0.0240665,-1.06995,7.37659,0.574695,0.594629,1.31766,-2.25455,-0.733042,-4.11438,0.105201,-8.87312,0.131961,-0.0780329,-0.136436,0.0114568,-0.223293,0.17489,0,0,0,0,0,0,0,0,0,-0.00944786,-0.000519148,-0.00238192,0.980096,-0.00177826,0.0016134,0.00185691,0.0756601,-0.883923,-0.99216,-0.100439,0.000226932
614,0.000344161,-0.0570188,-0.00573701,0.279976,0.0713622,0.0713622,0.0713622,0.0713622,0.0713622,0.0713622,0.0713622,0.0713622,0.0713622,0.669134,0.88929,0.0286379,1.11328,-0.0570188,-0.00573701,0.279976,0.0478645,-0.0327994,0.0484314,0.0481028,-0.015317,0.0679961,0.0713622,3.05513,-8.25997,-0.308272,0.499629,2.27546,-1.03884,-1.46361,6.04152,0.0153467,-0.253545,0.0652788,-0.287585,-0.240347,0.0619132,1.47122,0.0478645,-0.0327994,0.0484314,0.0481028,-0.015317,0.0679961,0,0,0,0,0,0,0,0,0,0.0235187,0.0117115,-0.00140422,0.85057,-0.00365099,-0.00200649,-0.00348623,-0.108957,-0.541196,-0.860474,0.109457,-0.00315393
615,0.000344161,0.00551867,-0.0173402,0.146896,0.0708719,0.0708719,0.0708719,0.0708719,0.0708719,0.0708719,0.0708719,0.0708719,0.0708719,0.0838247,0.896373,-0.0291281,0.900755,0.00551867,-0.0173402,0.146896,-0.0244859,-0.0548237,0.0366249,-0.00338042,0.0146751,0.0120227,0.0708719,-6.21925,-1.40602,0.438376,0.472133,-1.61289,0.440108,-3.34237,3.01339,-0.0797385,1.48486,-0.262548,2.58799,-1.93965,-0.0174421,0.607492,-0.0244859,-0.0548237,0.0366249,-0.00338042,0.0146751,0.0120227,0,0,0,0,0,0,0,0,0,-0.0138648,-0.0239122,0.00103786,0.452107,0.00137777,0.00279766,0.00689088,-0.0597642,-0.1448,-0.447339,0.0572855,0.00727938
616,0.000344161,-0.367554,-0.0275466,1.01968,0.00652252,0.00652252,0.00652252,0.00652252,0.00652252,0.00652252,0.00652252,0.00652252,0.00652252,-0.0623742,0.993477,0.0732365,0.998124,-0.367554,-0.0275466,1.01968,0.0145693,-0.109632,0.314096,0.0291886,0.00161505,0.0295968,0.00652252,14.3437,11.2167,-0.0808881,-0.0849476,13.2876,0.751954,-0.880953,-24.1368,0.00410987,0.168388,0.0108037,-0.275531,-0.0558937,0.0213914,0.1368,0.0145693,-0.109632,0.314096,0.0291886,0.00161505,0.0295968,0,0,0,0,0,0,0,0,0,0.0239558,0.0551268,0.00541866,0.330315,-0.00535422,-0.00732386,-0.016498,-0.0683319,-0.0832738,-0.319654,0.068456,-0.0164095
617,0.000344161,0.0894222,-0.0383008,0.0569149,0.0163154,0.0163154,0.0163154,0.0163154,0.0163154,0.0163154,0.0163154,0.0163154,0.0163154,-0.38094,-0.927672,-0.0836846,1.00633,0.0894222,-0.0383008,0.0569149,0.140684,-0.0243073,-0.0366631,-0.0500895,-0.0107155,-0.0351028,0.0163154,-10.8375,-19.2916,-0.536488,-0.561912,-2.28394,0.382205,0.0458652,21.4861,0.0613145,1.62013,-0.0198096,-0.178251,-1.01991,-0.00954926,0.075471,0.140684,-0.0243073,-0.0366631,-0.0500895,-0.0107155,-0.0351028,0,0,0,0,0,0,0,0,0,-0.0116366,-0.041103,-0.000412569,0.125993,-0.0031789,-0.00519539,0.0124372,0.0326841,-0.0178236,-0.122537,-0.0329893,0.0121578
618,0.000344161,0.197788,0.0207367,0.0154558,0.0169173,0.0169173,0.0169173,0.0169173,0.0169173,0.0169173,0.0169173,0.0169173,0.0169173,-0.466952,-0.793018,-0.0830827,0.924026,0.197788,0.0207367,0.0154558,0.0747416,-0.010445,-0.00192356,-0.107701,0.0241284,0.00794482,0.0169173,-8.88361,-16.9839,-0.141031,1.41071,6.32996,0.218758,0.0534139,10.4561,0.107972,0.86193,-0.0430851,-0.371227,-2.29338,-0.00631997,0.302357,0.0747416,-0.010445,-0.00192356,-0.107701,0.0241284,0.00794482,0,0,0,0,0,0,0,0,0,-0.00845482,-0.0338825,0.000109576,0.0920581,-0.00133296,-0.00162433,0.0101633,0.0115668,-0.0116278,-0.0898898,-0.0117563,0.01017
619,0.000344161,0.307131,0.0732231,0.472531,0.0354907,0.0354907,0.0354907,0.0354907,0.0354907,0.0354907,0.0354907,0.0354907,0.0354907,0.915554,-0.923562,-0.0645093,1.30206,0.307131,0.0732231,0.472531,0.1469,-0.0178521,0.0232697,0.0147817,0.00274944,0.0764227,0.0354907,-1.64557,24.2087,-0.262087,1.92523,-3.1064,-0.778281,-0.812809,-21.4095,0.0801474,1.36528,-0.124151,-0.892273,-3.36373,-0.083442,1.23255,0.1469,-0.0178521,0.0232697,0.0147817,0.00274944,0.0764227,0,0,0,0,0,0,0,0,0,-0.0593524,-0.00586554,-0.00245241,0.916074,-0.00911439,-0.000346985,0.00210244,0.124031,-0.756352,-0.923624,-0.125245,0.0015927
620,0.000344161,-0.028079,-0.0638437,0.0310792,0.0410912,0.0410912,0.0410912,0.0410912,0.0410912,0.0410912,0.0410912,0.0410912,0.0410912,-0.432894,0.789104,-0.0589088,0.901971,-0.028079,-0.0638437,0.0310792,0.010186,-0.0336432,0.0102129,-0.0249906,0.00774813,0.00908637,0.0410912,-6.73737,-12.1233,0.0139946,-1.15605,5.07898,0.426763,0.398706,7.0724,0.101889,-0.665385,0.106669,-0.602474,1.88528,-0.00434225,0.172689,0.010186,-0.0336432,0.0102129,-0.0249906,0.00774813,0.00908637,0,0,0,0,0,0,0,0,0,-0.00713503,-0.025968,-0.000661392,0.109167,0.000256097,0.000464906,0.00805242,-0.010402,-0.0150342,-0.104797,0.0115462,0.00769165
621,0.000344161,-0.0556995,0.0165161,0.36365,0.0230233,0.0230233,0.0230233,0.0230233,0.0230233,0.0230233,0.0230233,0.0230233,0.0230233,0.352133,-0.976977,0.00168966,1.0385,-0.0556995,0.0165161,0.36365,0.0805,-0.0104898,0.0423965,0.0280491,-0.0120134,0.0876823,0.0230233,0.295806,-0.125043,0.00551351,-0.039989,0.216587,0.0519398,-4.22035,-0.0358443,0.00468285,0.108613,0.0233846,2.81402,-0.0851397,0.00958009,1.04268,0.0805,-0.0104898,0.0423965,0.0280491,-0.0120134,0.0876823,0,0,0,0,0,0,0,0,0,0.000499658,0.00129734,0.000453987,0.66117,-0.000695223,-0.000503749,-0.000420533,0.105572,-0.285809,-0.660226,-0.105458,-9.78806e-05
622,0.000344161,-0.493006,0.0520763,1.0845,0.00617054,0.00617054,0.00617054,0.00617054,0.00617054,0.00617054,0.00617054,0.00617054,0.00617054,-0.134114,0.656915,0.038411,0.671564,-0.493006,0.0520763,1.0845,0.197329,0.43912,-0.583691,-0.0842052,-0.197499,-0.126202,0.00617054,5.50107,-25.4746,1.9785,-5.35078,11.2346,-2.46656,9.83175,14.7329,0.757645,-0.569142,-1.01327,-10.9015,5.86785,0.00568666,-0.0147677,0.197329,0.43912,-0.583691,-0.0842052,-0.197499,-0.126202,0,0,0,0,0,0,0,0,0,0.00891372,0.0212789,0.0259643,0.251642,-5.95469e-05,-0.00178811,-0.00384587,0.00915295,-0.0695458,-0.282144,-0.0212607,-0.00781565
623,0.000344161,-0.037447,-0.0289642,0.0458502,0.0659167,0.0659167,0.0659167,0.0659167,0.0659167,0.0659167,0.0659167,0.0659167,0.0659167,-0.509697,0.910996,-0.0340833,1.04445,-0.037447,-0.0289642,0.0458502,-0.0227023,-0.0118962,-0.0333419,-0.00769091,-0.037281,0.00344253,0.0659167,-3.45826,-6.83349,0.204612,-0.201669,-0.36882,0.967923,0.254854,7.23975,-0.011325,0.213877,0.0118319,-0.334776,0.0167562,-0.00266616,0.0340721,-0.0227023,-0.0118962,-0.0333419,-0.00769091,-0.037281,0.00344253,0,0,0,0,0,0,0,0,0,-0.00330184,-0.0133673,0.000117065,0.0775938,0.000438785,0.00181009,0.00394247,-0.0226248,-0.00609305,-0.068248,0.0223703,0.00404143
624,0.000344161,-0.0603476,0.0428429,0.365499,0.0243909,0.0243909,0.0243909,0.0243909,0.0243909,0.0243909,0.0243909,0.0243909,0.0243909,0.0063091,0.767262,-0.0756091,0.771005,-0.0603476,0.0428429,0.365499,0.0705028,-0.0380372,0.0720558,0.0217266,0.0223037,0.0263333,0.0243909,-16.5682,-14.4242,0.327078,4.86217,18.9539,-0.141717,-1.16491,-4.4693,-0.370902,2.40944,-0.19573,1.04298,-7.31446,-0.0438142,-0.243562,0.0705028,-0.0380372,0.0720558,0.0217266,0.0223037,0.0263333,0,0,0,0,0,0,0,0,0,-0.0302199,-0.0630295,-0.00396939,0.392677,0.00128104,0.00685979,0.017713,-0.0202101,-0.117685,-0.393373,0.0184759,0.0193714
625,0.000344161,-0.00550795,-0.0278623,0.169937,0.066508,0.066508,0.066508,0.066508,0.066508,0.066508,0.066508,0.066508,0.066508,0.00221588,0.927019,0.033492,0.927626,-0.00550795,-0.0278623,0.169937,-0.00689268,0.0134441,-0.0135384,0.00654292,0.00115347,-0.000267506,0.066508,6.85006,3.6726,-0.370789,-0.642138,2.84668,0.905378,-2.60579,-6.51376,0.0154305,-0.484037,-0.115409,1.99094,1.15404,0.018548,0.444918,-0.00689268,0.0134441,-0.0135384,0.00654292,0.00115347,-0.000267506,0,0,0,0,0,0,0,0,0,0.0122573,0.0262734,-0.00030601,0.385429,-0.00234459,-0.00326744,-0.00783254,-0.0590764,-0.109465,-0.376511,0.0579338,-0.00785101
626,0.000344161,-0.140102,-0.14642,0.772282,0.0480893,0.0480893,0.0480893,0.0480893,0.0480893,0.0480893,0.0480893,0.0480893,0.0480893,0.951911,-0.186148,0.0400205,0.970766,-0.140102,-0.14642,0.772282,0.0781333,-0.0684118,-0.0759964,0.107043,0.103311,0.0537717,0.0480893,0.118003,-5.56306,0.434201,-8.42543,-1.43763,-0.695096,-7.17275,7.1408,-2.07036,-2.9262,-1.11299,4.2691,11.4981,0.129287,2.13137,0.0781333,-0.0684118,-0.0759964,0.107043,0.103311,0.0537717,0,0,0,0,0,0,0,0,0,0.0395974,0.00280851,0.00477183,1.0119,0.000767855,-0.00111395,-0.00798875,0.0456912,-0.869085,-1.01961,-0.055788,0.00274313
627,0.000344161,0.118787,-0.0490296,0.213838,0.0654659,0.0654659,0.0654659,0.0654659,0.0654659,0.0654659,0.0654659,0.0654659,0.0654659,0.425577,0.705055,-0.0345341,0.824264,0.118787,-0.0490296,0.213838,-0.00245917,-0.00670949,0.0913162,0.00409389,-0.0201464,-0.00973845,0.0654659,-5.94155,10.7513,1.39214,-2.63468,-9.54043,-0.274521,-4.81225,-1.32966,-0.512666,5.19372,-0.268609,3.38571,-2.51001,-0.0287074,1.2127,-0.00245917,-0.00670949,0.0913162,0.00409389,-0.0201464,-0.00973845,0,0,0,0,0,0,0,0,0,-0.0265023,-0.0222304,0.0100044,0.744093,0.00156312,0.00384994,0.00494679,-0.0584496,-0.360355,-0.745925,0.0555621,0.00729742
628,0.000344161,-0.0572872,-0.0845146,0.494906,0.0468248,0.0468248,0.0468248,0.0468248,0.0468248,0.0468248,0.0468248,0.0468248,0.0468248,0.652478,0.745702,-0.0531752,0.992283,-0.0572872,-0.0845146,0.494906,0.0847343,-0.089551,0.0206299,0.0187181,0.0192118,0.0201523,0.0468248,-5.87619,15.8189,1.28529,-1.5656,-4.41646,-0.78398,-0.85783,-11.3451,-0.100295,0.484315,0.1103,-0.468919,1.1658,-0.0600533,0.831843,0.0847343,-0.089551,0.0206299,0.0187181,0.0192118,0.0201523,0,0,0,0,0,0,0,0,0,-0.0463869,-0.0221347,0.00678051,0.857997,0.00425807,0.00517692,0.00641473,-0.0902327,-0.541401,-0.86563,0.0915278,0.00662311
629,0.000344161,-0.0729938,0.0184369,0.655085,0.0522278,0.0522278,0.0522278,0.0522278,0.0522278,0.0522278,0.0522278,0.0522278,0.0522278,0.818513,0.442503,0.0477722,0.931695,-0.0729938,0.0184369,0.655085,0.00431921,0.0472601,0.0553741,0.117224,-0.0542803,0.05497,0.0522278,1.85845,-6.9043,-1.3482,0.721027,-0.890891,-0.623444,-4.12672,7.86819,-0.739761,2.50857,0.368479,1.94251,-3.24803,0.149796,1.52913,0.00431921,0.0472601,0.0553741,0.117224,-0.0542803,0.05497,0,0,0,0,0,0,0,0,0,0.0445191,0.00764653,-0.00838795,0.953608,-0.00434105,-0.00462142,-0.00477998,-0.0781179,-0.719327,-0.959289,0.0812599,-0.000643472
630,0.000344161,-0.576877,0.656475,2.18908,0.00988424,0.00988424,0.00988424,0.00988424,0.00988424,0.00988424,0.00988424,0.00988424,0.00988424,0.696671,0.420865,-0.0672536,0.816702,-0.576877,0.656475,2.18908,0.248968,-0.186206,0.271385,-0.0374352,-0.258762,0.0283012,0.00988424,-1.67794,-32.6471,1.76281,8.19296,18.8016,0.512532,-5.09501,14.4223,-1.83867,12.8254,-0.84713,3.2459,-21.6748,-0.108122,-0.339967,0.248968,-0.186206,0.271385,-0.0374352,-0.258762,0.0283012,0,0,0,0,0,0,0,0,0,-0.0642908,-0.0032392,0.0233751,0.939027,0.0043749,-0.00760907,-0.00547488,-0.0690029,-0.605633,-0.931187,0.057944,0.00350654
631,0.000344161,0.0105175,-0.0113673,0.829031,0.0282176,0.0282176,0.0282176,0.0282176,0.0282176,0.0282176,0.0282176,0.0282176,0.0282176,0.691065,-0.514383,0.0717824,0.864473,0.0105175,-0.0113673,0.829031,-0.0196154,-0.219173,-0.0198441,-0.0612192,-0.0287995,0.0821744,0.0282176,4.60903,-1.54478,2.55203,-5.05304,-0.306472,-0.103676,-6.29817,1.84074,0.581713,10.0203,0.139425,5.35756,-4.95587,0.12085,0.111582,-0.0196154,-0.219173,-0.0198441,-0.0612192,-0.0287995,0.0821744,0,0,0,0,0,0,0,0,0,0.064785,0.0168168,0.0179331,0.910173,0.00433738,0.00539544,-0.00352784,0.0740038,-0.593419,-0.911409,-0.0728976,-0.00511519
632,0.000344161,-0.0709257,0.00430483,0.0820904,0.0748364,0.0748364,0.0748364,0.0748364,0.0748364,0.0748364,0.0748364,0.0748364,0.0748364,-0.37159,0.925164,-0.00710264,0.997024,-0.0709257,0.00430483,0.0820904,0.010256,-0.0160051,-0.0209455,0.00757197,0.00347543,0.00196552,0.0748364,-0.954031,-1.40534,0.0326881,0.0134414,-0.189249,1.23611,0.517746,1.66552,0.00344622,-0.101535,0.0686807,-0.781236,0.0837887,0.00277172,0.1814,0.010256,-0.0160051,-0.0209455,0.00757197,0.00347543,0.00196552,0,0,0,0,0,0,0,0,0,-0.00164286,-0.00364808,-0.000150122,0.140046,-0.000114212,0.000316952,0.00112588,-0.0318252,-0.0189906,-0.127894,0.0325468,0.00109448
633,0.000344161,0.0290804,-0.104515,0.0332936,0.0276246,0.0276246,0.0276246,0.0276246,0.0276246,0.0276246,0.0276246,0.0276246,0.0276246,-0.456643,0.720602,-0.0723754,0.856171,0.0290804,-0.104515,0.0332936,0.000864983,0.000611186,0.00813961,-0.0588013,0.00639263,0.00768852,0.0276246,-7.64212,-13.8574,-0.416483,-2.68801,7.91421,0.22112,0.127366,5.9141,0.120441,-0.306072,0.103431,-0.368428,3.09859,-0.00623732,0.207768,0.000864983,0.000611186,0.00813961,-0.0588013,0.00639263,0.00768852,0,0,0,0,0,0,0,0,0,-0.00775503,-0.0294622,-0.00276825,0.0973711,-0.000242645,-0.00139047,0.00905224,-0.00194904,-0.0132614,-0.0950785,0.00304728,0.00875129
634,0.000344161,-0.325103,-0.0700169,1.76486,0.019288,0.019288,0.019288,0.019288,0.019288,0.019288,0.019288,0.019288,0.019288,0.980712,-0.646552,-0.0446191,1.17551,-0.325103,-0.0700169,1.76486,0.0161411,-0.0714819,0.12851,0.0280907,-0.10088,0.0536994,0.019288,0.00300129,1.8912,-0.100458,9.68128,-0.232459,-1.14793,6.78396,-1.33364,1.02536,3.84224,-1.30375,-2.90631,-13.4535,0.371123,-5.64252,0.0161411,-0.0714819,0.12851,0.0280907,-0.10088,0.0536994,0,0,0,0,0,0,0,0,0,-0.04237,-0.00163207,-0.00603592,0.939842,-0.00599549,0.00431652,0.00353946,0.110436,-0.851818,-0.950036,-0.124483,0.000396326
635,0.000344161,-0.230721,-0.213072,2.38082,0.0106639,0.0106639,0.0106639,0.0106639,0.0106639,0.0106639,0.0106639,0.0106639,0.0106639,0.646415,-0.482876,0.0524195,0.80856,-0.230721,-0.213072,2.38082,-0.0759312,-0.112941,0.0374832,0.121214,0.0541062,0.0853677,0.0106639,2.12197,24.4139,1.94079,3.22191,-14.0648,0.903711,-9.31445,-10.1184,1.81947,9.25096,1.16452,5.5954,-12.2598,0.12206,1.33823,-0.0759312,-0.112941,0.0374832,0.121214,0.0541062,0.0853677,0,0,0,0,0,0,0,0,0,0.0472637,0.00539078,0.0209043,0.910958,0.00287496,-0.00262578,0.00486402,0.0731361,-0.554966,-0.901546,-0.0609498,-0.00380226
636,0.000344161,-0.149319,0.0998505,0.660283,0.0336155,0.0336155,0.0336155,0.0336155,0.0336155,0.0336155,0.0336155,0.0336155,0.0336155,0.620328,-0.79486,-0.0663845,1.01045,-0.149319,0.0998505,0.660283,0.178642,-0.00212777,0.0228348,0.0144441,-0.0171804,0.0915825,0.0336155,-8.16658,19.7827,-1.36638,1.68101,-5.35049,-0.621631,-0.591627,-14.2829,-0.149765,-0.983003,-0.0533159,-0.378316,-0.797854,-0.0649795,0.309659,0.178642,-0.00212777,0.0228348,0.0144441,-0.0171804,0.0915825,0,0,0,0,0,0,0,0,0,-0.0560171,-0.0305974,-0.00680429,0.838253,-0.00740908,-0.00688078,0.00866569,0.096131,-0.507666,-0.844241,-0.096836,0.00947531
637,0.000344161,-0.0772138,0.145632,0.968579,0.0267406,0.0267406,0.0267406,0.0267406,0.0267406,0.0267406,0.0267406,0.0267406,0.0267406,0.764908,0.344485,0.0357374,0.839661,-0.0772138,0.145632,0.968579,-0.0149325,0.0528564,-0.0330276,0.0192824,0.0999789,0.0789738,0.0267406,0.590616,10.4739,-0.545262,-5.20645,-6.97347,0.385985,-17.8573,-3.42322,0.113349,-3.06021,-1.15254,14.4359,8.12103,0.113083,2.45288,-0.0149325,0.0528564,-0.0330276,0.0192824,0.0999789,0.0789738,0,0,0,0,0,0,0,0,0,0.0335171,0.00183953,-0.00837166,0.966599,-0.00310897,0.00344761,-0.000375733,-0.0686612,-0.674674,-0.96307,0.0581356,-7.86074e-05
638,0.000344161,-0.120541,0.0231672,0.54213,0.0381121,0.0381121,0.0381121,0.0381121,0.0381121,0.0381121,0.0381121,0.0381121,0.0381121,0.555321,0.961888,0.0177123,1.11082,-0.120541,0.0231672,0.54213,0.0205812,-0.0395663,0.0246735,0.036626,-0.0101023,0.0637239,0.0381121,2.46312,-4.37343,-0.0864445,0.156764,2.18606,-0.704383,-2.50147,2.3079,0.00607385,-0.195514,0.0255056,0.686453,0.0155825,0.0341545,1.27289,0.0205812,-0.0395663,0.0246735,0.036626,-0.0101023,0.0637239,0,0,0,0,0,0,0,0,0,0.0132459,0.00939047,-8.00658e-06,0.792997,-0.00249117,-0.0012521,-0.00281451,-0.1132,-0.438477,-0.799794,0.113354,-0.00253862
639,0.000344161,0.00307178,-0.0442817,0.0536974,0.0412967,0.0412967,0.0412967,0.0412967,0.0412967,0.0412967,0.0412967,0.0412967,0.0412967,-0.646762,-0.857839,-0.0587033,1.07593,0.00307178,-0.0442817,0.0536974,0.05834,0.015736,0.0272088,-0.0707014,0.00990617,-0.0128354,0.0412967,-4.37785,-16.7721,-0.465817,0.585895,1.5503,0.425393,-0.28943,15.2188,-0.301022,-2.92824,0.0796988,-0.205015,2.38662,-0.287746,0.440747,0.05834,0.015736,0.0272088,-0.0707014,0.00990617,-0.0128354,0,0,0,0,0,0,0,0,0,-0.00249881,-0.0158378,-0.00088829,0.0303055,-0.000986824,-0.00361252,0.00390116,0.00979552,-0.000569262,-0.0257794,-0.00889947,0.00425688
640,0.000344161,0.0164981,-0.0573204,0.0179504,0.0393172,0.0393172,0.0393172,0.0393172,0.0393172,0.0393172,0.0393172,0.0393172,0.0393172,-0.262769,0.782218,-0.0606828,0.827403,0.0164981,-0.0573204,0.0179504,0.0179532,-0.0355236,0.0390739,-0.00438964,0.0290015,-0.00961876,0.0393172,-9.34812,-15.4313,-0.0926735,0.589247,7.58342,0.394055,-0.640062,7.83134,0.340162,-1.64357,0.0659164,0.355219,1.11165,-0.01428,0.266893,0.0179532,-0.0355236,0.0390739,-0.00438964,0.0290015,-0.00961876,0,0,0,0,0,0,0,0,0,-0.0126582,-0.0362451,-0.00233027,0.196802,0.000293298,0.0010483,0.0120846,-0.01057,-0.0399896,-0.192471,0.0115191,0.0102862
641,0.000344161,0.912729,-0.28426,1.62383,0.00348382,0.00348382,0.00348382,0.00348382,0.00348382,0.00348382,0.00348382,0.00348382,0.00348382,-0.00720867,0.690949,0.00778389,0.69103,0.912729,-0.28426,1.62383,0.116141,0.082778,-0.691612,-0.0970019,-0.21015,-0.050482,0.00348382,1.5329,-14.6117,0.272141,-3.80234,13.5973,-2.25411,22.9315,0.101688,0.0572275,4.07519,-0.477395,-25.6385,0.0114092,0.00376116,1.08318,0.116141,0.082778,-0.691612,-0.0970019,-0.21015,-0.050482,0,0,0,0,0,0,0,0,0,0.00214128,0.00644226,0.00404587,0.35845,-0.000400612,-0.000496688,-0.00200181,-0.00396158,-0.112283,-0.387907,-0.00291387,-0.00203654
642,0.000344161,0.606017,0.278459,1.98439,0.0229064,0.0229064,0.0229064,0.0229064,0.0229064,0.0229064,0.0229064,0.0229064,0.0229064,0.892957,-0.167628,-0.0770936,0.91182,0.606017,0.278459,1.98439,-0.0157118,-0.136439,0.0114899,0.357873,-0.0312943,-0.00587547,0.0229064,-0.724165,-2.45126,-1.12488,-3.70461,6.12516,-0.105135,-1.95905,-4.27992,3.9218,7.77883,-0.0894738,1.19474,-4.35268,-0.110545,-1.22008,-0.0157118,-0.136439,0.0114899,0.357873,-0.0312943,-0.00587547,0,0,0,0,0,0,0,0,0,-0.0787439,-0.00764944,-0.0119863,1.01138,-0.00423131,-0.000626863,0.0174483,0.0423438,-0.81001,-1.01232,-0.0435514,-0.00453215
643,0.000344161,-0.0663252,0.0469224,0.399035,0.0575848,0.0575848,0.0575848,0.0575848,0.0575848,0.0575848,0.0575848,0.0575848,0.0575848,0.7305,0.777892,0.0424152,1.06796,-0.0663252,0.0469224,0.399035,0.0333607,0.00682238,0.0507126,0.0541446,-0.00851631,0.0589485,0.0575848,3.62913,-13.1141,-0.771354,1.11964,2.98057,-1.00735,-1.02131,10.1999,-0.00056809,0.278631,0.167519,-0.764239,-1.44519,0.0970758,1.38652,0.0333607,0.00682238,0.0507126,0.0541446,-0.00851631,0.0589485,0,0,0,0,0,0,0,0,0,0.0365386,0.0138446,-0.00373605,0.882833,-0.00484036,-0.00390926,-0.00419991,-0.101185,-0.606812,-0.892399,0.102775,-0.00368767
644,0.000344161,-0.0546169,0.0948205,0.973566,0.0175695,0.0175695,0.0175695,0.0175695,0.0175695,0.0175695,0.0175695,0.0175695,0.0175695,0.537915,0.810279,0.0824305,0.976064,-0.0546169,0.0948205,0.973566,-0.124796,0.0869888,0.0587616,0.0294411,0.0272045,0.0467253,0.0175695,12.0672,-23.6586,-1.80421,1.69503,7.62358,-0.31826,-0.542692,16.0896,0.264963,-2.31716,-0.00644031,-0.0129418,0.527311,0.0883545,-0.417932,-0.124796,0.0869888,0.0587616,0.0294411,0.0272045,0.0467253,0,0,0,0,0,0,0,0,0,0.0646929,0.0454367,-0.00874107,0.798707,-0.00770221,-0.00843116,-0.0128032,-0.0872605,-0.440266,-0.801302,0.0874681,-0.0135998
645,0.000344161,-0.0658264,-0.00533855,0.23653,0.0229772,0.0229772,0.0229772,0.0229772,0.0229772,0.0229772,0.0229772,0.0229772,0.0229772,-0.294747,0.816939,0.0770228,0.871893,-0.0658264,-0.00533855,0.23653,0.00886989,0.0936784,0.0235195,0.0215008,0.0023061,0.00449896,0.0229772,11.2687,18.9144,-0.213002,-0.862642,-6.89825,0.319391,-0.0689038,-11.9504,-0.350658,2.79501,0.0552052,-0.129141,-1.92703,0.0152615,-0.0384856,0.00886989,0.0936784,0.0235195,0.0215008,0.0023061,0.00449896,0,0,0,0,0,0,0,0,0,0.0132056,0.0437321,0.000628445,0.177013,-0.00163868,-0.00182168,-0.0143013,-0.017175,-0.0338098,-0.173584,0.0177501,-0.0125567
646,0.000344161,-0.304683,-0.269133,0.676073,0.0594338,0.0594338,0.0594338,0.0594338,0.0594338,0.0594338,0.0594338,0.0594338,0.0594338,0.940566,-0.529977,-0.0376238,1.08026,-0.304683,-0.269133,0.676073,-0.0160169,-0.10383,0.0283661,-0.0640873,-0.0190153,0.117805,0.0594338,-0.291949,12.3612,-0.542471,10.1899,-0.813944,-1.14025,-2.74429,-11.2426,1.06049,3.62875,-1.10154,-1.40752,-13.5495,0.0303424,3.47574,-0.0160169,-0.10383,0.0283661,-0.0640873,-0.0190153,0.117805,0,0,0,0,0,0,0,0,0,-0.0363994,-0.00250512,-0.00634763,0.953297,-0.00489236,-0.000115385,0.00401672,0.100723,-0.827236,-0.964416,-0.111929,-0.000224552
647,0.000344161,0.0342523,0.0269099,0.0492454,0.0832288,0.0832288,0.0832288,0.0832288,0.0832288,0.0832288,0.0832288,0.0832288,0.0832288,0.0246181,-0.916771,0.0122106,0.917183,0.0342523,0.0269099,0.0492454,0.099553,0.000569656,-0.0571098,0.0202115,-0.0185728,0.048278,0.0832288,2.47646,1.09922,0.129097,0.264487,0.781016,0.835955,-3.05845,-1.91449,0.0128509,0.288513,0.181886,2.45934,-0.57991,0.0114097,0.549862,0.099553,0.000569656,-0.0571098,0.0202115,-0.0185728,0.048278,0,0,0,0,0,0,0,0,0,0.00430627,0.00980074,0.000694548,0.402069,8.11797e-05,0.000602115,-0.00291403,0.0606076,-0.117563,-0.394281,-0.0589745,-0.00278091
648,0.000344161,0.0974669,0.015774,0.768423,0.036117,0.036117,0.036117,0.036117,0.036117,0.036117,0.036117,0.036117,0.036117,0.691095,0.526514,-0.063883,0.871155,0.0974669,0.015774,0.768423,0.12961,-0.082244,0.0316238,0.0449438,0.0218344,0.0462304,0.036117,-4.40625,3.68066,2.23224,-4.66735,-0.344113,-0.17086,-6.39666,-3.43401,-0.408771,7.08953,-0.0757511,5.20091,-2.43795,-0.0862324,0.427321,0.12961,-0.082244,0.0316238,0.0449438,0.0218344,0.0462304,0,0,0,0,0,0,0,0,0,-0.0590397,-0.0159827,0.0162476,0.909605,0.00411776,0.00525236,0.00358141,-0.0720996,-0.593624,-0.910997,0.0715605,0.00520053
649,0.000344161,-0.108607,-0.0906639,0.452031,0.0483154,0.0483154,0.0483154,0.0483154,0.0483154,0.0483154,0.0483154,0.0483154,0.0483154,0.647534,0.788332,-0.0516846,1.02149,-0.108607,-0.0906639,0.452031,0.090248,-0.0697598,0.0181732,0.0103415,0.0138378,0.0230553,0.0483154,-5.89986,15.6829,1.07398,-1.25682,-4.33829,-0.820964,-0.802372,-11.236,-0.0830619,0.489142,0.0868753,-0.506244,0.858345,-0.0566709,0.856586,0.090248,-0.0697598,0.0181732,0.0103415,0.0138378,0.0230553,0,0,0,0,0,0,0,0,0,-0.0447406,-0.022222,0.00557836,0.851017,0.00437074,0.00446381,0.00646249,-0.0949029,-0.533134,-0.859044,0.09591,0.00665802
650,0.000344161,-0.128557,-0.0165855,0.0750317,0.0589721,0.0589721,0.0589721,0.0589721,0.0589721,0.0589721,0.0589721,0.0589721,0.0589721,-0.406265,-0.758566,0.0410279,0.861485,-0.128557,-0.0165855,0.0750317,0.0279699,-0.00142124,0.0389643,0.0333026,-0.00843978,0.0176271,0.0589721,4.81916,8.97396,-0.139531,-0.976002,-4.35466,0.468651,0.455649,-4.49074,-0.129622,-0.524755,-0.16025,-0.632125,1.51734,0.00874477,0.101444,0.0279699,-0.00142124,0.0389643,0.0333026,-0.00843978,0.0176271,0,0,0,0,0,0,0,0,0,0.00437599,0.0187235,-0.000965499,0.120642,-0.000177363,-0.000444022,-0.00599373,0.00658281,-0.0178679,-0.115566,-0.0082697,-0.00538027
651,0.000344161,-0.0555639,-0.0308509,0.234569,0.0903966,0.0903966,0.0903966,0.0903966,0.0903966,0.0903966,0.0903966,0.0903966,0.0903966,0.740727,-0.756672,0.00960342,1.05892,-0.0555639,-0.0308509,0.234569,0.0402818,-0.000409748,0.0203476,0.0572269,-2.86102e-05,0.0977775,0.0903966,0.803916,-2.60819,0.14375,-0.253005,0.483767,-1.2263,-1.44484,2.17999,-0.0188604,-0.148202,-0.209465,-0.925271,0.432058,0.0408788,2.13555,0.0402818,-0.000409748,0.0203476,0.0572269,-2.86102e-05,0.0977775,0,0,0,0,0,0,0,0,0,0.00793569,0.00304266,0.00104304,0.884684,-0.000110166,0.000390365,-0.000986499,0.102869,-0.616222,-0.896743,-0.104964,-0.000485049
652,0.000344161,-0.0457668,0.0519981,0.160735,0.0667875,0.0667875,0.0667875,0.0667875,0.0667875,0.0667875,0.0667875,0.0667875,0.0667875,0.00695856,-0.779946,0.0332125,0.780684,-0.0457668,0.0519981,0.160735,0.0978276,-0.0294234,-0.0182304,0.010722,-0.00315857,0.025986,0.0667875,7.10799,5.61531,0.182898,1.94825,-6.21111,-0.118892,-2.42944,0.641563,0.193602,1.35338,0.404893,1.56579,-3.35364,0.0256844,0.702921,0.0978276,-0.0294234,-0.0182304,0.010722,-0.00315857,0.025986,0,0,0,0,0,0,0,0,0,0.0123908,0.0274193,-0.00106503,0.389751,0.000253057,0.00259978,-0.00758816,0.0269213,-0.116324,-0.391122,-0.022904,-0.00835143
653,0.000344161,0.106942,0.138346,0.481227,0.0746308,0.0746308,0.0746308,0.0746308,0.0746308,0.0746308,0.0746308,0.0746308,0.0746308,0.925369,0.587253,-0.0130576,1.09606,0.106942,0.138346,0.481227,-0.000389464,-0.0138147,-0.00262451,0.0150597,-0.0303144,0.0829706,0.0746308,-0.10049,4.52981,0.218552,-3.49238,-0.484385,-1.34111,-0.706122,-4.15236,0.316295,-1.43011,1.05495,-1.84973,4.78415,0.0486854,2.07463,-0.000389464,-0.0138147,-0.00262451,0.0150597,-0.0303144,0.0829706,0,0,0,0,0,0,0,0,0,-0.0132291,-0.000922242,0.00238028,0.942811,0.000663398,-0.000332912,0.00123893,-0.100862,-0.807721,-0.956248,0.111108,0.000240437
654,0.000344161,-0.110748,0.0900846,1.35061,0.0163427,0.0163427,0.0163427,0.0163427,0.0163427,0.0163427,0.0163427,0.0163427,0.0163427,0.719673,0.735314,0.0836573,1.03229,-0.110748,0.0900846,1.35061,-0.0128508,0.165553,0.0350494,0.0465271,0.0203018,0.0432699,0.0163427,7.34847,-26.3116,-1.92624,3.31441,6.45928,-0.356034,-0.250063,19.9631,0.0102416,0.303588,0.0813368,-0.311349,-3.70809,0.117055,-0.7892,-0.0128508,0.165553,0.0350494,0.0465271,0.0203018,0.0432699,0,0,0,0,0,0,0,0,0,0.0730982,0.0279634,-0.00900707,0.888695,-0.00858196,-0.00859982,-0.00843083,-0.0965817,-0.601659,-0.891904,0.0975981,-0.00791305
655,0.000344161,-0.000207186,-0.0547218,0.570521,0.0206339,0.0206339,0.0206339,0.0206339,0.0206339,0.0206339,0.0206339,0.0206339,0.0206339,0.221046,0.874318,-0.0793661,0.905314,-0.000207186,-0.0547218,0.570521,0.0708325,-0.0527876,0.0241127,0.0274165,-0.0362186,-0.000462055,0.0206339,-16.9637,7.53942,1.43138,0.468435,-5.43479,-0.0690277,-1.23979,-2.10443,-0.424097,5.58076,-0.118186,0.844501,-5.99448,-0.0444256,-0.175235,0.0708325,-0.0527876,0.0241127,0.0274165,-0.0362186,-0.000462055,0,0,0,0,0,0,0,0,0,-0.0455946,-0.064463,0.00603337,0.565741,0.00501493,0.00775252,0.0180179,-0.0672012,-0.216391,-0.56619,0.0656572,0.0197768
656,0.000344161,-0.145617,0.0613616,-0.00484881,0.0572756,0.0572756,0.0572756,0.0572756,0.0572756,0.0572756,0.0572756,0.0572756,0.0572756,-0.522224,-0.424466,0.0427244,0.674326,-0.145617,0.0613616,-0.00484881,0.0323242,-0.00662446,0.00154829,0.0223867,-0.0515206,0.00112355,0.0572756,1.78322,-5.20281,-1.06734,-2.3094,1.00179,-0.37744,-4.64412,4.34663,0.555176,3.43077,0.136749,4.54054,-1.18274,0.0106251,0.108426,0.0323242,-0.00662446,0.00154829,0.0223867,-0.0515206,0.00112355,0,0,0,0,0,0,0,0,0,0.00124487,0.00630288,-0.00787523,0.0424757,-0.00108744,-0.00286443,0.000112982,-0.0168811,-0.00524493,-0.0462346,0.0177334,-0.00271609
657,0.000344161,-0.0165062,-0.00703132,0.15068,0.0768061,0.0768061,0.0768061,0.0768061,0.0768061,0.0768061,0.0768061,0.0768061,0.0768061,-0.0242183,0.826142,-0.0231939,0.826822,-0.0165062,-0.00703132,0.15068,-0.0395109,-0.0491615,0.0613213,0.00233632,0.00937462,0.00887084,0.0768061,-4.78424,-3.64913,0.242387,1.07028,2.08104,0.367605,-2.72395,1.5846,-0.0540433,0.77764,-0.297195,2.01891,-1.84089,-0.0142699,0.554367,-0.0395109,-0.0491615,0.0613213,0.00233632,0.00937462,0.00887084,0,0,0,0,0,0,0,0,0,-0.00918549,-0.018487,-4.51203e-05,0.367081,0.000411062,0.00197738,0.00537322,-0.0332756,-0.104074,-0.362792,0.0303974,0.00560476
658,0.000344161,-2.37705,-0.216594,4.12069,0.00148586,0.00148586,0.00148586,0.00148586,0.00148586,0.00148586,0.00148586,0.00148586,0.00148586,0.632316,0.755955,-0.0985141,0.990453,-2.37705,-0.216594,4.12069,-1.00803,0.124043,-0.0624847,0.0403159,0.114771,0.185634,0.00148586,-10.2959,29.3386,2.07021,-4.07731,-7.57668,-0.02932,-0.0796933,-19.3848,-0.156654,1.1027,0.00807746,-0.0716859,3.19121,-0.0269072,-3.96931,-1.00803,0.124043,-0.0624847,0.0403159,0.114771,0.185634,0,0,0,0,0,0,0,0,0,-0.0844333,-0.0435256,0.0118931,0.853512,0.00827624,0.0100494,0.0124124,-0.0890569,-0.523582,-0.85443,0.0902854,0.0137877
659,0.000344161,-0.100993,0.00973022,0.191472,0.0233551,0.0233551,0.0233551,0.0233551,0.0233551,0.0233551,0.0233551,0.0233551,0.0233551,-0.211297,0.976645,-0.0188185,0.999418,-0.100993,0.00973022,0.191472,-0.0646124,-0.0325933,0.0534439,0.00351679,0.0196228,-0.0118997,0.0233551,-3.10574,-4.02957,0.0493509,0.090856,-2.20465,1.67869,0.141408,6.33521,0.000434905,-0.178614,0.0276187,-0.621341,0.0780274,0.00175624,0.28846,-0.0646124,-0.0325933,0.0534439,0.00351679,0.0196228,-0.0118997,0,0,0,0,0,0,0,0,0,-0.005058,-0.0121865,-0.00127024,0.233012,0.00061707,0.00143782,0.00368501,-0.0512321,-0.0441187,-0.215691,0.0517045,0.00361453
660,0.000344161,-5.2925,5.59226,12.7678,0.00473792,0.00473792,0.00473792,0.00473792,0.00473792,0.00473792,0.00473792,0.00473792,0.00473792,0.990307,0.792968,-0.0952621,1.27223,-5.2925,5.59226,12.7678,-0.000880927,0.131277,-0.0802612,-0.0632851,0.0865898,0.356631,0.00473792,-0.639183,49.5898,0.165084,-16.344,-0.836892,-0.196424,-22.329,-43.4605,0.933709,-5.18573,0.0727984,-0.269249,15.9375,-0.0473109,9.83052,-0.000880927,0.131277,-0.0802612,-0.0632851,0.0865898,0.356631,0,0,0,0,0,0,0,0,0,-0.0891717,-0.00382303,0.00783271,0.937161,0.0103679,-0.0048691,0.00372941,-0.123183,-0.844625,-0.939928,0.124777,0.000923892
661,0.000344161,0.555584,-0.646376,1.28881,0.0268019,0.0268019,0.0268019,0.0268019,0.0268019,0.0268019,0.0268019,0.0268019,0.0268019,0.925252,0.451152,-0.0731981,1.03198,0.555584,-0.646376,1.28881,0.203546,0.0989109,0.0137787,0.0702301,0.0420275,-0.0165505,0.0268019,-1.39068,18.7774,1.46932,-10.7093,-1.06527,-0.466365,-1.47297,-18.2678,1.94528,-6.18108,0.452665,-0.257262,17.5368,-0.101326,0.44143,0.203546,0.0989109,0.0137787,0.0702301,0.0420275,-0.0165505,0,0,0,0,0,0,0,0,0,-0.0717434,-0.00675546,0.0128436,0.971009,0.00581982,0.0028387,0.00925773,-0.0934423,-0.821924,-0.975535,0.0983892,-0.00140919
662,0.000344161,0.0635443,-0.090589,0.414919,0.0482647,0.0482647,0.0482647,0.0482647,0.0482647,0.0482647,0.0482647,0.0482647,0.0482647,0.656992,-0.539255,-0.0517353,0.851534,0.0635443,-0.090589,0.414919,0.143311,0.0355538,0.0511932,0.028328,-0.0247579,0.0653738,0.0482647,-3.88554,0.349908,-1.99841,5.8883,-1.65424,-0.00665317,-10.5821,1.24079,-0.751996,-10.8686,0.278003,9.1328,5.07085,-0.0767864,1.03434,0.143311,0.0355538,0.0511932,0.028328,-0.0247579,0.0653738,0,0,0,0,0,0,0,0,0,-0.0469076,-0.013545,-0.0151342,0.895768,-0.0049125,-0.00449434,0.00154778,0.0732309,-0.560788,-0.895323,-0.0706985,0.00510906
663,0.000344161,-0.0419637,-0.0270997,0.0518135,0.0960734,0.0960734,0.0960734,0.0960734,0.0960734,0.0960734,0.0960734,0.0960734,0.0960734,-0.563655,-0.516946,0.00392659,0.764824,-0.0419637,-0.0270997,0.0518135,0.0211124,0.00224976,0.00469208,0.00560285,-0.014472,0.00563952,0.0960734,0.258777,0.219606,-0.0818244,-0.37397,-0.203726,-0.121921,-1.27613,0.0260831,0.0469259,-0.0732726,-0.314715,0.505591,0.474342,0.000852291,0.718729,0.0211124,0.00224976,0.00469208,0.00560285,-0.014472,0.00563952,0,0,0,0,0,0,0,0,0,-0.000374123,0.0010084,-0.000318771,0.0470123,-0.000422591,-0.000476976,-0.000128406,-0.0110013,-0.00434077,-0.0481846,0.00770947,-0.000358591
664,0.000344161,0.391365,-0.056705,1.99008,0.0158803,0.0158803,0.0158803,0.0158803,0.0158803,0.0158803,0.0158803,0.0158803,0.0158803,0.936754,0.936073,-0.0841197,1.32696,0.391365,-0.056705,1.99008,0.380881,-0.0531868,0.0460358,-0.0921438,-0.0238638,-0.0101804,0.0158803,-1.86089,26.8107,0.197374,-2.07217,-3.21344,-0.338725,-0.49866,-23.9886,0.11768,-2.06406,0.059623,-0.296698,4.19294,-0.0847024,-1.19472,0.380881,-0.0531868,0.0460358,-0.0921438,-0.0238638,-0.0101804,0,0,0,0,0,0,0,0,0,-0.0778215,-0.00561235,0.00300277,0.923447,0.00948851,-0.0015609,0.00191541,-0.122394,-0.777054,-0.926374,0.122751,0.00131331
665,0.000344161,0.0784664,-0.294543,0.656521,0.0505713,0.0505713,0.0505713,0.0505713,0.0505713,0.0505713,0.0505713,0.0505713,0.0505713,0.93037,-0.021991,-0.0494287,0.931942,0.0784664,-0.294543,0.656521,0.116102,-0.0127386,-0.00240326,-0.00278544,-0.00235677,0.107392,0.0505713,-0.162616,0.104499,-0.136501,0.987833,4.85242,-0.242757,-6.48797,-5.03539,3.34492,0.573861,-0.0733514,3.0869,-1.26715,-0.0884172,2.74455,0.116102,-0.0127386,-0.00240326,-0.00278544,-0.00235677,0.107392,0,0,0,0,0,0,0,0,0,-0.0517337,-0.0040571,-0.00204495,1.02636,-0.00124262,0.000552558,0.0128861,0.00687392,-0.852229,-1.02881,-0.007631,-0.00372966
666,0.000344161,-0.189081,-0.0743694,0.10247,0.0306659,0.0306659,0.0306659,0.0306659,0.0306659,0.0306659,0.0306659,0.0306659,0.0306659,-0.434637,0.49993,0.0693341,0.666068,-0.189081,-0.0743694,0.10247,-0.000174522,0.000532001,0.0355177,0.0584487,0.0426147,0.0390913,0.0306659,4.13137,-10.6012,2.17044,6.06748,-2.16162,-0.456067,-8.16631,12.9519,0.8117,-15.3178,-0.374044,8.1662,9.32473,0.0111956,-0.102361,-0.000174522,0.000532001,0.0355177,0.0584487,0.0426147,0.0390913,0,0,0,0,0,0,0,0,0,0.00467276,0.0148272,0.0185765,0.0788324,0.00113226,0.00313324,-0.00147806,0.0239299,-0.0127549,-0.0830379,-0.0272442,-0.00557737
667,0.000344161,0.0566928,-0.0317342,0.0613177,0.0509213,0.0509213,0.0509213,0.0509213,0.0509213,0.0509213,0.0509213,0.0509213,0.0509213,-0.449281,-0.679121,-0.0490787,0.815762,0.0566928,-0.0317342,0.0613177,0.00526482,-0.0271769,0.01719,0.0081706,-0.00384107,0.00726724,0.0509213,-5.03464,-8.36525,0.515181,2.32456,5.80827,0.242316,0.00797364,2.50029,0.0860057,-0.23203,-0.181463,-0.191557,-2.0608,-0.000951272,0.122266,0.00526482,-0.0271769,0.01719,0.0081706,-0.00384107,0.00726724,0,0,0,0,0,0,0,0,0,-0.00543147,-0.0194597,0.00353533,0.0985208,-0.000246072,0.00134471,0.00615806,-0.00335246,-0.0136122,-0.0959258,0.00149942,0.00571876
668,0.000344161,-0.0715546,-0.0176759,0.0295627,0.0941583,0.0941583,0.0941583,0.0941583,0.0941583,0.0941583,0.0941583,0.0941583,0.0941583,-0.397606,-0.846107,-0.00584169,0.934891,-0.0715546,-0.0176759,0.0295627,0.0535494,-0.00268605,0.0260916,0.0154304,-0.00902963,0.0127213,0.0941583,-0.756814,-1.1175,-0.0319034,-0.0257219,0.36683,0.83617,0.715975,0.822227,0.0116975,0.162306,-0.11823,-0.868437,-0.118908,0.00403078,0.122899,0.0535494,-0.00268605,0.0260916,0.0154304,-0.00902963,0.0127213,0,0,0,0,0,0,0,0,0,-0.00135212,-0.00275549,0.000207271,0.126365,-0.000559473,-0.000553166,0.000896467,0.0194286,-0.0175028,-0.117742,-0.0207012,0.000844588
669,0.000344161,0.373747,-0.0707445,1.06131,0.0283055,0.0283055,0.0283055,0.0283055,0.0283055,0.0283055,0.0283055,0.0283055,0.0283055,0.815388,-0.231934,-0.0210185,0.847993,0.373747,-0.0707445,1.06131,0.0576367,0.0548771,-0.00410461,0.0717828,-0.0820317,0.0987278,0.0283055,-0.158725,-5.29035,-0.175032,-8.73342,4.41246,0.181509,-11.7823,0.504142,0.665871,3.72463,1.10122,7.53477,5.07953,-0.032983,3.18627,0.0576367,0.0548771,-0.00410461,0.0717828,-0.0820317,0.0987278,0,0,0,0,0,0,0,0,0,-0.0216629,-0.0013158,-0.00509028,0.992832,-0.00231008,0.00388873,0.00287791,0.0577029,-0.729452,-0.991058,-0.047511,-0.000481634
670,0.000344161,-0.130064,-0.0132389,0.467707,0.0575419,0.0575419,0.0575419,0.0575419,0.0575419,0.0575419,0.0575419,0.0575419,0.0575419,0.918307,-0.666607,-0.0424581,1.13554,-0.130064,-0.0132389,0.467707,-0.0104574,-0.0875615,0.00265503,0.0141809,0.0196438,0.0992123,0.0575419,-0.743507,16.442,-0.643645,6.38247,-1.69477,-1.10787,-1.73423,-14.6171,0.551047,2.89719,-0.653601,-1.64785,-9.26641,-0.0386406,2.91437,-0.0104574,-0.0875615,0.00265503,0.0141809,0.0196438,0.0992123,0,0,0,0,0,0,0,0,0,-0.0400809,-0.00362194,-0.00534502,0.932933,-0.0058555,-0.00196705,0.00297402,0.11142,-0.790264,-0.943985,-0.117759,0.000450741
671,0.000344161,-0.0694923,-0.0258008,-0.00578175,0.0757282,0.0757282,0.0757282,0.0757282,0.0757282,0.0757282,0.0757282,0.0757282,0.0757282,-0.466809,-0.91674,0.0242718,1.02903,-0.0694923,-0.0258008,-0.00578175,0.0445766,-0.00624991,-0.00113773,0.017374,0.00240564,0.00449002,0.0757282,2.57856,5.36041,0.135845,-0.0748467,0.505492,1.06876,0.376092,-5.79641,-0.0103973,-0.17119,-0.0243973,-0.418067,0.271838,0.00557409,0.0477565,0.0445766,-0.00624991,-0.00113773,0.017374,0.00240564,0.00449002,0,0,0,0,0,0,0,0,0,0.00167619,0.0100693,0.000223983,0.094424,0.000205016,0.00107197,-0.00301147,0.0260263,-0.00889895,-0.0837478,-0.0262462,-0.00299604
672,0.000344161,0.264397,0.159542,0.152068,0.00916323,0.00916323,0.00916323,0.00916323,0.00916323,0.00916323,0.00916323,0.00916323,0.00916323,-0.470672,-0.769362,-0.0908368,0.906478,0.264397,0.159542,0.152068,0.188357,-0.00825767,-0.0169878,-0.175146,0.0128179,0.0119874,0.00916323,-9.6549,-17.9258,-0.00619528,1.98249,7.80536,0.121855,-0.153113,9.85602,0.175391,0.997254,-0.0289297,-0.239399,-3.13928,-0.00836266,0.240444,0.188357,-0.00825767,-0.0169878,-0.175146,0.0128179,0.0119874,0,0,0,0,0,0,0,0,0,-0.00901977,-0.0364143,0.00078672,0.0899752,-0.0011577,-0.00093125,0.0109197,0.008836,-0.0116224,-0.0889265,-0.00899711,0.0109366
673,0.000344161,0.0156689,-0.0193552,0.0239562,0.055159,0.055159,0.055159,0.055159,0.055159,0.055159,0.055159,0.055159,0.055159,-0.500112,-0.794042,-0.044841,0.939481,0.0156689,-0.0193552,0.0239562,0.046423,-0.00190975,0.00469923,-0.0205109,0.0185086,0.019735,0.055159,-4.55209,-7.8593,-0.0920963,0.852587,3.19396,0.481924,0.865307,4.64967,-0.0312828,-0.0911157,-0.0842456,-0.904402,-0.742116,0.000580329,0.015139,0.046423,-0.00190975,0.00469923,-0.0205109,0.0185086,0.019735,0,0,0,0,0,0,0,0,0,-0.00428601,-0.0172932,0.000156414,0.0815523,-0.000873188,-0.00109647,0.0049762,0.0104835,-0.0085617,-0.076686,-0.0111409,0.00533674
674,0.000344161,0.00136185,-0.0146055,0.123127,0.0785807,0.0785807,0.0785807,0.0785807,0.0785807,0.0785807,0.0785807,0.0785807,0.0785807,0.235103,-0.877058,-0.0214193,0.908274,0.00136185,-0.0146055,0.123127,0.0346572,-0.00301725,-0.0234604,0.0299467,-0.0164161,0.0514939,0.0785807,-4.48908,2.2143,-0.381331,-0.073102,-1.5529,-0.160404,-3.32532,-0.66276,-0.124919,-1.66843,0.345728,2.25016,1.75614,-0.013272,0.952041,0.0346572,-0.00301725,-0.0234604,0.0299467,-0.0164161,0.0514939,0,0,0,0,0,0,0,0,0,-0.0128764,-0.0170669,-0.00100714,0.574356,-0.00236465,-0.00283634,0.00473034,0.0729175,-0.222236,-0.576195,-0.0696244,0.00539631
675,0.000344161,0.27248,-0.0792662,0.746769,0.0234641,0.0234641,0.0234641,0.0234641,0.0234641,0.0234641,0.0234641,0.0234641,0.0234641,0.572636,0.918666,-0.0765359,1.08523,0.27248,-0.0792662,0.746769,0.0314245,0.0192384,0.0279388,0.0394243,-0.0133514,0.0689268,0.0234641,-10.5438,22.1969,0.7829,-1.2772,-8.20089,-0.394752,-0.689944,-14.2685,-0.036979,1.21709,0.0126675,0.158918,0.139377,-0.0565729,-0.215743,0.0314245,0.0192384,0.0279388,0.0394243,-0.0133514,0.0689268,0,0,0,0,0,0,0,0,0,-0.0623765,-0.0404493,0.00352418,0.807446,0.00771367,0.00449721,0.0121248,-0.107332,-0.457642,-0.811114,0.107325,0.0121744
676,0.000344161,0.0844934,-0.0201466,0.0276331,0.0350788,0.0350788,0.0350788,0.0350788,0.0350788,0.0350788,0.0350788,0.0350788,0.0350788,-0.622364,0.964921,0.0069293,1.14824,0.0844934,-0.0201466,0.0276331,0.014326,-0.0222079,0.188753,0.00579928,-0.0363034,0.00373481,0.0350788,0.44574,1.4683,-0.0315376,0.141395,0.747469,1.63656,-3.42636,-2.30026,0.00323354,-0.0809624,-0.069854,1.68768,-0.040286,-0.00916874,1.71105,0.014326,-0.0222079,0.188753,0.00579928,-0.0363034,0.00373481,0,0,0,0,0,0,0,0,0,-0.000326864,0.00176533,0.00023822,0.0421036,-0.000448504,-0.000775675,-0.000489834,-0.0201282,0.000256427,-0.0238505,0.0190667,-0.000562168
677,0.000344161,0.0636392,0.1418,1.12905,0.0256763,0.0256763,0.0256763,0.0256763,0.0256763,0.0256763,0.0256763,0.0256763,0.0256763,0.590683,0.556548,0.0322212,0.812213,0.0636392,0.1418,1.12905,-0.0352498,-0.00177039,-0.0176315,0.0571191,0.0703378,0.067176,0.0256763,2.46738,0.630947,-1.49861,8.49109,4.98805,0.786958,-19.7364,-5.68263,0.982597,-13.9573,-0.904963,16.9571,5.32443,0.0614172,1.65028,-0.0352498,-0.00177039,-0.0176315,0.0571191,0.0703378,0.067176,0,0,0,0,0,0,0,0,0,0.0272629,0.00800628,-0.0130218,0.873836,-0.002697,-0.001982,0.00104423,-0.0668025,-0.502165,-0.866142,0.0584562,-0.00351138
678,0.000344161,-0.0050087,-0.35285,0.496899,0.0427084,0.0427084,0.0427084,0.0427084,0.0427084,0.0427084,0.0427084,0.0427084,0.0427084,0.917594,0.716826,-0.0572916,1.1658,-0.0050087,-0.35285,0.496899,0.115927,0.058274,-0.042923,0.00353564,0.0242329,0.0431985,0.0427084,-1.25576,21.0731,0.746503,-6.37209,-2.42173,-0.87022,-1.10946,-18.6464,0.525148,-2.99004,0.420363,-1.32059,9.71497,-0.0769582,1.93314,0.115927,0.058274,-0.042923,0.00353564,0.0242329,0.0431985,0,0,0,0,0,0,0,0,0,-0.0539895,-0.00495505,0.00641583,0.93025,0.00570214,0.00163194,0.00338755,-0.112188,-0.785576,-0.939381,0.116634,0.000575332
679,0.000344161,-0.0356224,-0.0264633,0.051434,0.0698647,0.0698647,0.0698647,0.0698647,0.0698647,0.0698647,0.0698647,0.0698647,0.0698647,-0.248235,0.747051,-0.0301353,0.78779,-0.0356224,-0.0264633,0.051434,0.00443059,-0.0237584,0.0139675,0.0191733,0.0108175,0.00210702,0.0698647,-4.65868,-7.32484,-0.215732,-0.103929,5.00424,0.369966,-2.21969,2.35622,0.153012,0.2966,0.023739,1.88194,-0.166208,-0.00831951,0.286319,0.00443059,-0.0237584,0.0139675,0.0191733,0.0108175,0.00210702,0,0,0,0,0,0,0,0,0,-0.00681543,-0.0180925,-0.00276464,0.204788,-0.000234911,0.000369732,0.00603971,-0.00378827,-0.0428903,-0.200948,0.00413383,0.00514772
680,0.000344161,-0.0254164,-0.00565302,0.394029,0.0477676,0.0477676,0.0477676,0.0477676,0.0477676,0.0477676,0.0477676,0.0477676,0.0477676,0.476914,-0.799632,0.0522324,0.932516,-0.0254164,-0.00565302,0.394029,0.101739,-0.0412685,-0.0162201,0.008075,-0.00701523,0.0633776,0.0477676,8.36474,-14.4564,1.21686,-1.10881,5.22248,-0.64933,-1.34796,9.25935,0.292356,2.2205,0.0840478,0.162198,-1.10604,0.0759556,0.791731,0.101739,-0.0412685,-0.0162201,0.008075,-0.00701523,0.0633776,0,0,0,0,0,0,0,0,0,0.0389908,0.0320559,0.00684626,0.758386,0.00335126,0.00490961,-0.00877428,0.0822666,-0.391384,-0.765042,-0.0814963,-0.00957976
681,0.000344161,-0.101419,-0.0185453,0.0590555,0.0753243,0.0753243,0.0753243,0.0753243,0.0753243,0.0753243,0.0753243,0.0753243,0.0753243,-0.394819,-0.727882,0.0246757,0.828434,-0.101419,-0.0185453,0.0590555,0.0373515,-0.00278881,0.0427675,0.0247129,-0.0109905,0.0144749,0.0753243,2.90152,5.35104,-0.180304,-0.747747,-3.00333,0.437757,0.0477436,-2.24629,-0.0950721,-0.0895987,-0.193054,-0.21935,0.855891,0.00780113,0.112551,0.0373515,-0.00278881,0.0427675,0.0247129,-0.0109905,0.0144749,0,0,0,0,0,0,0,0,0,0.00250381,0.0113588,-0.00109265,0.125178,-0.000401789,-0.000738277,-0.00368732,0.00173375,-0.0193343,-0.120373,-0.00377419,-0.00322414
682,0.000344161,-0.363391,-0.0775464,2.0634,0.0192155,0.0192155,0.0192155,0.0192155,0.0192155,0.0192155,0.0192155,0.0192155,0.0192155,0.876719,-0.119107,0.0807845,0.888453,-0.363391,-0.0775464,2.0634,-0.0842947,-0.0415144,0.0311966,0.433318,0.0137353,-0.0664183,0.0192155,0.418852,6.84394,0.797477,10.3683,-7.63054,-0.0379585,-1.1605,1.14999,-4.96635,-9.78727,-0.0104843,0.702255,-0.503492,0.205671,-1.60515,-0.0842947,-0.0415144,0.0311966,0.433318,0.0137353,-0.0664183,0,0,0,0,0,0,0,0,0,0.0810186,0.00635651,0.00790507,1.01563,0.00146252,-0.000345446,-0.0179814,0.029963,-0.795273,-1.01569,-0.0299305,0.00537998
683,0.000344161,0.378768,0.134628,0.448334,0.0580317,0.0580317,0.0580317,0.0580317,0.0580317,0.0580317,0.0580317,0.0580317,0.0580317,0.941968,-0.937717,0.0154819,1.32923,0.378768,0.134628,0.448334,0.102936,-0.0464241,-0.120178,0.00687465,-0.0402288,0.10817,0.0580317,0.165195,-6.37955,0.0394839,-0.510802,0.481982,-1.40902,2.89262,5.5188,-0.0142832,-0.241127,-0.28523,-2.80463,0.617302,0.0414816,-0.53632,0.102936,-0.0464241,-0.120178,0.00687465,-0.0402288,0.10817,0,0,0,0,0,0,0,0,0,0.0135475,0.000867148,0.000667062,0.910546,0.00072751,-0.000736464,-0.000510551,0.122833,-0.778941,-0.925838,-0.126088,0.000274748
684,0.000344161,0.049341,0.0347328,0.407001,0.0538368,0.0538368,0.0538368,0.0538368,0.0538368,0.0538368,0.0538368,0.0538368,0.0538368,0.802496,-0.330558,-0.0425394,0.868953,0.049341,0.0347328,0.407001,0.119941,0.0818881,0.00365448,0.0559314,-0.0220027,0.0470118,0.0538368,-1.03099,-6.02242,-0.929129,-6.90187,6.28946,-0.0453038,-10.9798,-0.316383,0.692335,1.21358,0.418633,8.62557,5.65356,-0.0830967,1.94718,0.119941,0.0818881,0.00365448,0.0559314,-0.0220027,0.0470118,0,0,0,0,0,0,0,0,0,-0.042033,-0.00432579,-0.00986909,0.971849,-0.00405011,0.00139668,0.0039708,0.0683183,-0.711246,-0.972265,-0.064352,4.90416e-05
685,0.000344161,-0.0824451,-0.0257206,0.322936,0.0426934,0.0426934,0.0426934,0.0426934,0.0426934,0.0426934,0.0426934,0.0426934,0.0426934,0.474139,-0.957307,0.0483618,1.06938,-0.0824451,-0.0257206,0.322936,0.0432631,0.0117353,-0.00395966,0.0321783,0.0182924,0.0765443,0.0426934,7.8974,-12.0315,0.333729,-0.434052,7.0991,-0.396083,-2.31259,5.01483,0.0268087,0.836574,0.00393628,1.21245,-0.376801,0.0645844,0.777213,0.0432631,0.0117353,-0.00395966,0.0321783,0.0182924,0.0765443,0,0,0,0,0,0,0,0,0,0.035364,0.0303101,0.000773574,0.74421,0.00439102,0.00268107,-0.00909827,0.110501,-0.374204,-0.74821,-0.110279,-0.00868756
686,0.000344161,-0.0757599,0.00152123,0.171719,0.0321738,0.0321738,0.0321738,0.0321738,0.0321738,0.0321738,0.0321738,0.0321738,0.0321738,-0.249158,-0.790595,0.0678262,0.831698,-0.0757599,0.00152123,0.171719,0.0361171,-0.0479906,0.0268822,0.0137248,-0.00322318,0.0129399,0.0321738,10.6391,17.117,0.0256309,0.994301,-8.20418,0.353082,-0.542853,-8.83703,-0.372789,-1.9712,-0.0526197,0.271256,0.975373,0.0184066,0.0998788,0.0361171,-0.0479906,0.0268822,0.0137248,-0.00322318,0.0129399,0,0,0,0,0,0,0,0,0,0.0133187,0.0414367,-0.00146498,0.203501,0.000416247,0.00124139,-0.0137347,0.0137585,-0.0421571,-0.199701,-0.014317,-0.0117827
687,0.000344161,-0.191061,-0.0597243,1.63076,0.0233284,0.0233284,0.0233284,0.0233284,0.0233284,0.0233284,0.0233284,0.0233284,0.0233284,0.857083,-0.238498,0.0766716,0.892945,-0.191061,-0.0597243,1.63076,-0.0781715,-0.138215,-0.00610352,0.230736,0.0228338,0.00994337,0.0233284,1.11845,4.05912,1.45691,10.2214,-7.87142,-0.109652,-2.97548,4.00336,-3.26664,-10.0517,-0.0421419,2.22491,-0.11001,0.196195,-0.880193,-0.0781715,-0.138215,-0.00610352,0.230736,0.0228338,0.00994337,0,0,0,0,0,0,0,0,0,0.0754879,0.00726617,0.0124309,0.995821,0.00315118,0.000756007,-0.0131147,0.0543965,-0.77043,-0.996978,-0.0545896,0.00309549
688,0.000344161,-0.0394177,0.0225535,0.0557508,0.0838822,0.0838822,0.0838822,0.0838822,0.0838822,0.0838822,0.0838822,0.0838822,0.0838822,-0.393225,0.904455,0.0161178,0.98637,-0.0394177,0.0225535,0.0557508,0.0174267,-0.0140845,0.0053339,0.0118826,0.00167847,0.000319779,0.0838822,1.9815,3.6604,-0.086588,0.000296067,-0.167601,1.06768,0.551282,-3.45338,-0.0186215,0.323878,0.0751475,-0.736962,-0.346727,0.00583089,0.129929,0.0174267,-0.0140845,0.0053339,0.0118826,0.00167847,0.000319779,0,0,0,0,0,0,0,0,0,0.00144164,0.00768887,-0.000169772,0.129236,-0.000784868,-0.000836954,-0.00233947,-0.0276398,-0.0169709,-0.118506,0.028408,-0.00227502
689,0.000344161,-0.00543404,0.0750761,-0.0145893,0.0489821,0.0489821,0.0489821,0.0489821,0.0489821,0.0489821,0.0489821,0.0489821,0.0489821,-0.605407,0.612724,0.0510179,0.862874,-0.00543404,0.0750761,-0.0145893,0.0179125,-0.0584764,0.00957012,0.00670606,0.00364397,0.0217475,0.0489821,3.82166,6.0608,0.445935,2.71189,-3.73428,-0.00415215,1.3196,-2.32108,0.490874,-0.416017,0.207008,-1.0622,-2.37095,0.069941,-0.242809,0.0179125,-0.0584764,0.00957012,0.00670606,0.00364397,0.0217475,0,0,0,0,0,0,0,0,0,0.00162952,0.0140877,0.00219732,0.0431386,-0.000130931,0.00167727,-0.0026223,0.00355099,-0.00303758,-0.0430844,-0.00144448,-0.00465176
690,0.000344161,-0.0206127,-0.0284368,0.350541,0.0540763,0.0540763,0.0540763,0.0540763,0.0540763,0.0540763,0.0540763,0.0540763,0.0540763,0.720117,0.895792,0.0459238,1.15027,-0.0206127,-0.0284368,0.350541,0.0613566,-0.0170368,0.0570068,0.0454107,-0.0243979,0.0509377,0.0540763,4.17947,-14.5742,-0.449226,0.852893,3.7284,-0.95845,-1.18345,10.8665,0.0103329,-0.171571,0.0833283,-0.349785,-0.652884,0.0946537,1.18269,0.0613566,-0.0170368,0.0570068,0.0454107,-0.0243979,0.0509377,0,0,0,0,0,0,0,0,0,0.0391085,0.0160786,-0.00208364,0.871018,-0.00571161,-0.00257899,-0.00484686,-0.112537,-0.584919,-0.880033,0.113126,-0.00439762
691,0.000344161,0.136032,-0.0742111,0.419385,0.0967124,0.0967124,0.0967124,0.0967124,0.0967124,0.0967124,0.0967124,0.0967124,0.0967124,0.903288,-0.785777,0.00220385,1.19724,0.136032,-0.0742111,0.419385,0.0105381,-0.0243073,0.021843,0.0549549,0.0508471,0.095917,0.0967124,0.137519,-1.15944,0.0138671,0.307253,-0.0238016,-1.47561,-0.410191,1.04721,-0.00011865,0.101688,-0.522997,-2.23415,-0.33473,0.0634487,2.22495,0.0105381,-0.0243073,0.021843,0.0549549,0.0508471,0.095917,0,0,0,0,0,0,0,0,0,0.00147486,0.000322293,0.000171368,0.916184,-0.000912139,-0.00027577,-0.00014381,0.116338,-0.761923,-0.930722,-0.12106,0.000378838
692,0.000344161,0.158826,-0.114342,0.924036,0.00198459,0.00198459,0.00198459,0.00198459,0.00198459,0.00198459,0.00198459,0.00198459,0.00198459,-0.382273,0.998015,0.03331,1.06924,0.158826,-0.114342,0.924036,-0.106415,0.0661932,0.303346,0.0222753,0.00759792,0.0328858,0.00198459,4.35939,7.40253,-0.008048,0.00438505,3.14089,1.49347,0.0200886,-10.7022,0.00240503,0.154773,0.00495924,-0.962202,-0.0448155,0.00825733,0.0180771,-0.106415,0.0661932,0.303346,0.0222753,0.00759792,0.0328858,0,0,0,0,0,0,0,0,0,0.00392095,0.0162816,0.00310827,0.135858,-0.00173802,-0.00252682,-0.00485982,-0.0422571,-0.0150208,-0.11789,0.0423827,-0.00477751
693,0.000344161,0.0365869,0.00260925,0.842929,0.0340795,0.0340795,0.0340795,0.0340795,0.0340795,0.0340795,0.0340795,0.0340795,0.0340795,0.831279,0.200105,0.0402623,0.855972,0.0365869,0.00260925,0.842929,-0.00597042,0.0109947,0.0213699,0.0534876,0.081696,0.0557461,0.0340795,0.217668,6.40121,-0.246708,-14.0249,-5.86772,0.0435269,-7.97395,-0.570079,-1.48548,7.23628,-0.690887,4.82219,6.78605,0.168586,2.30884,-0.00597042,0.0109947,0.0213699,0.0534876,0.081696,0.0557461,0,0,0,0,0,0,0,0,0,0.0391768,0.00220768,-0.00652492,1.00019,-0.00266115,0.00416779,-0.00601079,-0.0470422,-0.747088,-0.999543,0.0409503,0.00227085
694,0.000344161,0.0654392,-0.0406108,0.885676,0.030519,0.030519,0.030519,0.030519,0.030519,0.030519,0.030519,0.030519,0.030519,0.88515,0.756016,0.069481,1.16614,0.0654392,-0.0406108,0.885676,0.0846174,-0.107909,-0.0207825,0.0641828,-0.0372992,0.0656752,0.030519,2.29264,-23.5165,-0.971029,4.60261,3.89192,-0.64927,0.292306,19.5591,-0.317,2.54559,0.260723,-1.03345,-7.10759,0.161688,-0.144532,0.0846174,-0.107909,-0.0207825,0.0641828,-0.0372992,0.0656752,0,0,0,0,0,0,0,0,0,0.063089,0.00917268,-0.00606683,0.924264,-0.00835837,-0.00472255,-0.00397771,-0.112816,-0.750671,-0.930964,0.11505,-0.00157681
695,0.000344161,-0.55831,0.289875,3.56565,0.00375509,0.00375509,0.00375509,0.00375509,0.00375509,0.00375509,0.00375509,0.00375509,0.00375509,0.410157,0.97331,0.0962449,1.06058,-0.55831,0.289875,3.56565,0.141548,-0.255503,0.0426025,0.0243866,0.0336857,0.0294299,0.00375509,17.0721,-21.9633,-0.429015,0.433375,17.8116,-0.0277084,-0.250309,4.71,-0.0171027,-0.0555632,0.00788817,0.231614,-0.667687,0.0468059,-3.54695,0.141548,-0.255503,0.0426025,0.0243866,0.0336857,0.0294299,0,0,0,0,0,0,0,0,0,0.0670162,0.0661098,9.31555e-05,0.704633,-0.0107074,-0.00693834,-0.0199218,-0.10636,-0.328576,-0.704484,0.106776,-0.019577
696,0.000344161,-0.275322,0.0843718,0.342289,0.00945269,0.00945269,0.00945269,0.00945269,0.00945269,0.00945269,0.00945269,0.00945269,0.00945269,-0.382953,0.724642,0.0905473,0.824595,-0.275322,0.0843718,0.342289,-0.19006,0.0382727,0.00434113,0.145714,0.0257766,0.0204458,0.00945269,11.1239,20.584,0.596963,2.16008,-12.003,0.081342,-0.170562,-8.30561,-0.558246,1.48981,0.0379789,0.00666139,-3.73426,0.0116982,-0.178388,-0.19006,0.0382727,0.00434113,0.145714,0.0257766,0.0204458,0,0,0,0,0,0,0,0,0,0.0112007,0.0424923,0.00454111,0.128347,-0.000409449,0.00181124,-0.0142398,-0.0013183,-0.0215951,-0.127491,0.00195586,-0.0120164
697,0.000344161,0.00464313,-0.0218398,0.166685,0.0453598,0.0453598,0.0453598,0.0453598,0.0453598,0.0453598,0.0453598,0.0453598,0.0453598,0.28144,0.95464,0.00166968,0.995263,0.00464313,-0.0218398,0.166685,-0.0177726,-0.0234041,0.0173569,0.0193212,-0.0132065,0.0190435,0.0453598,0.304307,-0.31827,-0.0199751,0.000354443,0.257593,0.147632,-4.30211,0.0560338,0.00311396,-0.0596278,-0.11411,3.17943,0.0811131,0.00580901,0.955993,-0.0177726,-0.0234041,0.0173569,0.0193212,-0.0132065,0.0190435,0,0,0,0,0,0,0,0,0,0.00028947,0.00104749,-3.69735e-06,0.610173,-0.000564234,-0.000430095,-0.000273003,-0.0927595,-0.244795,-0.608523,0.0914864,-0.000260917
698,0.000344161,-0.577326,-0.0687919,-0.133484,0.00852487,0.00852487,0.00852487,0.00852487,0.00852487,0.00852487,0.00852487,0.00852487,0.00852487,-0.632498,-0.598349,-0.0914751,0.875467,-0.577326,-0.0687919,-0.133484,0.0551869,-0.0287718,-0.432831,-0.227617,-0.030024,0.15468,0.00852487,-7.0852,7.81861,0.643431,5.86156,6.47894,-0.047265,7.47473,-13.7202,-0.896091,-0.652449,-0.0494564,-0.180334,-5.14031,-0.0380955,-7.16092,0.0551869,-0.0287718,-0.432831,-0.227617,-0.030024,0.15468,0,0,0,0,0,0,0,0,0,-0.00373784,-0.0258764,0.00330696,0.031047,-9.70904e-05,0.00283964,0.00365508,-0.00213797,-0.0021285,-0.035848,0.00134316,0.00985654
699,0.000344161,-0.0863857,-0.0233427,0.0409529,0.0488497,0.0488497,0.0488497,0.0488497,0.0488497,0.0488497,0.0488497,0.0488497,0.0488497,-0.455638,0.911944,-0.0511503,1.02072,-0.0863857,-0.0233427,0.0409529,-0.039243,-0.0254606,-0.0319338,-0.0138071,-0.0147362,0.00712609,0.0488497,-5.71691,-10.5762,0.310563,-0.190872,-0.365953,0.835132,0.328295,11.0286,0.0111158,-0.251656,0.0348037,-0.483576,0.465871,-0.00318745,0.114327,-0.039243,-0.0254606,-0.0319338,-0.0138071,-0.0147362,0.00712609,0,0,0,0,0,0,0,0,0,-0.00575289,-0.0221405,0.000273403,0.0982384,0.00097478,0.00257762,0.00662682,-0.0256701,-0.0104333,-0.0902064,0.0258707,0.00665997
700,0.000344161,0.215759,-0.136544,0.63557,0.00601057,0.00601057,0.00601057,0.00601057,0.00601057,0.00601057,0.00601057,0.00601057,0.00601057,-0.316323,0.761231,-0.0939894,0.829678,0.215759,-0.136544,0.63557,0.271393,-0.022335,-0.0267639,-0.154605,0.00720459,-0.0445776,0.00601057,-13.4214,-23.1857,-0.339001,-0.148463,12.5838,0.0632649,-0.202043,10.3861,0.699563,-2.73921,0.0165851,0.0141522,3.02421,-0.0152571,-0.447679,0.271393,-0.022335,-0.0267639,-0.154605,0.00720459,-0.0445776,0,0,0,0,0,0,0,0,0,-0.0162238,-0.0511368,-0.00350794,0.16259,0.000236696,-0.000105425,0.0173382,-0.00697568,-0.0311129,-0.162225,0.00721358,0.0143142
701,0.000344161,-0.0261602,0.107955,0.802949,0.0402113,0.0402113,0.0402113,0.0402113,0.0402113,0.0402113,0.0402113,0.0402113,0.0402113,0.812543,-0.43519,-0.0597887,0.923683,-0.0261602,0.107955,0.802949,0.10992,0.0578138,0.00772095,0.039152,0.0219393,0.0424851,0.0402113,-2.4596,7.53652,-1.77636,0.856769,1.41899,-0.421761,-3.3418,-8.92935,0.905376,2.6385,-0.229033,2.06916,-3.60322,-0.106279,0.469689,0.10992,0.0578138,0.00772095,0.039152,0.0219393,0.0424851,0,0,0,0,0,0,0,0,0,-0.057557,-0.0100535,-0.0117993,0.953558,-0.00589391,-0.00538618,0.00641757,0.0799531,-0.713254,-0.957698,-0.082024,0.00137596
702,0.000344161,0.43968,-0.191868,1.60143,0.0179511,0.0179511,0.0179511,0.0179511,0.0179511,0.0179511,0.0179511,0.0179511,0.0179511,0.92669,-0.938219,-0.0820489,1.32126,0.43968,-0.191868,1.60143,0.332256,-0.00201845,0.0114746,-0.0781155,0.0347433,0.0357025,0.0179511,-2.07263,26.8373,-0.24106,1.76847,-3.54775,-0.383139,-0.209544,-23.7292,0.101307,1.79504,-0.06154,-0.325799,-3.37164,-0.0863792,-1.06609,0.332256,-0.00201845,0.0114746,-0.0781155,0.0347433,0.0357025,0,0,0,0,0,0,0,0,0,-0.0754873,-0.00666205,-0.00269139,0.920217,-0.011334,0.00026061,0.0021558,0.12542,-0.764829,-0.923934,-0.125688,0.00178646
703,0.000344161,-0.0441031,0.00784755,0.200935,0.0612751,0.0612751,0.0612751,0.0612751,0.0612751,0.0612751,0.0612751,0.0612751,0.0612751,0.319342,0.898194,0.0387249,0.954061,-0.0441031,0.00784755,0.200935,0.0429654,-0.00644025,0.00172424,-0.00370181,-0.0138931,0.0133622,0.0612751,7.5247,-6.97177,-0.604122,0.269069,3.91764,-0.308252,-2.69991,3.09823,0.138357,-2.27041,-0.195694,1.71216,1.99349,0.0480706,0.786813,0.0429654,-0.00644025,0.00172424,-0.00370181,-0.0138931,0.0133622,0,0,0,0,0,0,0,0,0,0.0240707,0.0288802,-0.00225748,0.640899,-0.00365898,-0.00384814,-0.0082849,-0.0833151,-0.273565,-0.643964,0.0812192,-0.00865101
704,0.000344161,-0.0903187,-0.0192758,0.00264003,0.0425194,0.0425194,0.0425194,0.0425194,0.0425194,0.0425194,0.0425194,0.0425194,0.0425194,-0.607702,0.957481,-0.0488053,1.1351,-0.0903187,-0.0192758,0.00264003,-0.0041638,-0.0195365,0.0296681,0.00499779,-0.0261568,-0.0195075,0.0425194,-3.89961,-11.8407,0.234149,-0.209135,-3.94551,1.13575,-0.819701,15.8765,-0.022531,0.992307,-0.0478873,0.845781,-0.763896,-0.0488929,-0.0287193,-0.0041638,-0.0195365,0.0296681,0.00499779,-0.0261568,-0.0195075,0,0,0,0,0,0,0,0,0,-0.00277884,-0.0149153,-0.00167475,0.0417344,0.000696113,0.00382087,0.00451584,-0.020626,-0.000378929,-0.0300802,0.0198855,0.0042615
705,0.000344161,0.054965,-0.0031513,0.318872,0.068338,0.068338,0.068338,0.068338,0.068338,0.068338,0.068338,0.068338,0.068338,0.759943,-0.794326,-0.031662,1.09976,0.054965,-0.0031513,0.318872,0.080409,0.000144809,0.0153427,0.0211194,0.0196037,0.0825528,0.068338,-2.48192,11.2202,-0.563148,0.893698,-2.404,-1.13648,-1.10526,-8.87116,-0.000312582,0.203238,-0.181214,-0.914626,-1.09378,-0.0434529,1.70102,0.080409,0.000144809,0.0153427,0.0211194,0.0196037,0.0825528,0,0,0,0,0,0,0,0,0,-0.0286539,-0.00930569,-0.00266649,0.888008,-0.00452807,-0.00296354,0.00280588,0.108222,-0.629484,-0.899219,-0.109838,0.00289734
706,0.000344161,0.137482,-0.0673537,0.259427,0.054796,0.054796,0.054796,0.054796,0.054796,0.054796,0.054796,0.054796,0.054796,0.498462,0.678964,-0.045204,0.843504,0.137482,-0.0673537,0.259427,0.0562962,-0.0167364,0.0905075,0.000535965,-0.0319557,0.00170994,0.054796,-6.60641,12.3578,1.79749,-4.53128,-9.62787,-0.328784,-5.07812,-2.86743,-0.586449,6.9382,-0.152845,3.73901,-2.33957,-0.0440541,1.07969,0.0562962,-0.0167364,0.0905075,0.000535965,-0.0319557,0.00170994,0,0,0,0,0,0,0,0,0,-0.0367276,-0.0244678,0.0127092,0.79407,0.00240576,0.00509834,0.00535317,-0.0636564,-0.418212,-0.796453,0.0618084,0.00807101
707,0.000344161,0.0373212,-0.0157862,0.163481,0.048148,0.048148,0.048148,0.048148,0.048148,0.048148,0.048148,0.048148,0.048148,0.290234,0.951852,0.0170101,0.995263,0.0373212,-0.0157862,0.163481,0.0226582,-0.0193812,0.0119019,0.0220349,-0.013835,0.0211399,0.048148,3.32693,-2.58727,-0.152697,0.106372,2.68756,0.085595,-4.09019,-0.137607,0.0200698,-0.645615,-0.114404,2.99507,0.55503,0.0209724,0.931634,0.0226582,-0.0193812,0.0119019,0.0220349,-0.013835,0.0211399,0,0,0,0,0,0,0,0,0,0.00976198,0.0127859,2.47527e-05,0.616834,-0.00199203,-0.00174554,-0.00375156,-0.0928587,-0.250465,-0.615859,0.0915763,-0.00375152
708,0.000344161,0.0306727,-0.00761795,0.295068,0.0983272,0.0983272,0.0983272,0.0983272,0.0983272,0.0983272,0.0983272,0.0983272,0.0983272,0.869865,-0.436208,0.00167284,0.973111,0.0306727,-0.00761795,0.295068,0.0397102,0.00682431,0.0432739,0.0237372,0.0895224,0.102585,0.0983272,0.053033,0.138913,-0.0293832,0.344358,-0.0859249,-1.03817,-4.34271,-0.0836611,0.0463982,0.261776,-0.778664,0.746921,-0.598516,0.040753,3.30072,0.0397102,0.00682431,0.0432739,0.0237372,0.0895224,0.102585,0,0,0,0,0,0,0,0,0,0.000971258,0.000110389,-0.000271089,0.959581,-0.000992643,4.55e-05,-2.64985e-06,0.0843146,-0.768385,-0.96953,-0.091206,0.000363363
709,0.000344161,-0.014533,0.00534368,0.358577,0.0605044,0.0605044,0.0605044,0.0605044,0.0605044,0.0605044,0.0605044,0.0605044,0.0605044,0.615939,-0.80234,-0.0394957,1.01227,-0.014533,0.00534368,0.358577,0.125909,0.00126094,-0.0135651,0.0167717,-0.0133867,0.0598816,0.0605044,-4.93447,11.64,-0.809886,0.916414,-3.33389,-0.920116,-1.02542,-8.2916,-0.095996,-0.615166,-0.0612851,-0.501748,-0.306592,-0.0428731,1.16859,0.125909,0.00126094,-0.0135651,0.0167717,-0.0133867,0.0598816,0,0,0,0,0,0,0,0,0,-0.0334096,-0.0184227,-0.00386025,0.832589,-0.00484568,-0.004226,0.00522401,0.0966345,-0.503035,-0.841926,-0.0973812,0.00570517
710,0.000344161,0.369787,0.0329831,1.67869,0.0120571,0.0120571,0.0120571,0.0120571,0.0120571,0.0120571,0.0120571,0.0120571,0.0120571,0.497959,-0.737293,-0.0879429,0.894035,0.369787,0.0329831,1.67869,-0.163017,0.0721334,-0.0118637,0.100106,-0.0327935,0.132651,0.0120571,-13.3494,26.5284,-2.63587,3.98464,-11.2745,-0.191488,-0.439265,-15.6238,-0.65428,-5.23298,0.01284,0.17841,1.21536,-0.0536959,-1.41783,-0.163017,0.0721334,-0.0118637,0.100106,-0.0327935,0.132651,0,0,0,0,0,0,0,0,0,-0.0691396,-0.0514227,-0.0146156,0.783093,-0.00751745,-0.0110217,0.0133688,0.0737285,-0.413042,-0.785127,-0.073928,0.0165344
711,0.000344161,-0.0293875,0.00532585,0.342306,0.0638751,0.0638751,0.0638751,0.0638751,0.0638751,0.0638751,0.0638751,0.0638751,0.0638751,0.68921,0.856629,0.0361249,1.10006,-0.0293875,0.00532585,0.342306,0.0477674,-0.0218357,0.0590591,0.0522983,-0.0147314,0.0646777,0.0638751,3.62015,-10.8194,-0.475687,0.729286,2.70383,-1.03028,-1.23509,8.14498,0.022214,-0.193889,0.0884305,-0.512378,-0.540723,0.0769221,1.40517,0.0477674,-0.0218357,0.0590591,0.0522983,-0.0147314,0.0646777,0,0,0,0,0,0,0,0,0,0.0302436,0.013858,-0.00226125,0.861124,-0.0043796,-0.00271398,-0.00410901,-0.106369,-0.562136,-0.870837,0.107106,-0.00377357
712,0.000344161,0.014276,0.019883,0.367295,0.0109547,0.0109547,0.0109547,0.0109547,0.0109547,0.0109547,0.0109547,0.0109547,0.0109547,-0.131692,0.989045,-0.0191032,0.997957,0.014276,0.019883,0.367295,-0.0772988,-0.028201,0.252756,0.000140488,0.0145917,-0.0157715,0.0109547,-3.45139,-3.74102,0.0250898,0.0496545,-2.66915,1.67375,-0.777423,6.3959,-0.00100367,-0.0785311,0.0153236,0.0675382,0.00899358,0.00107304,0.34259,-0.0772988,-0.028201,0.252756,0.000140488,0.0145917,-0.0157715,0,0,0,0,0,0,0,0,0,-0.00617584,-0.0135539,-0.00172413,0.28767,0.000805659,0.00169302,0.0040852,-0.0605682,-0.0626551,-0.268405,0.0608673,0.00401603
713,0.000344161,-0.0292187,-0.0369179,-0.0350387,0.0759463,0.0759463,0.0759463,0.0759463,0.0759463,0.0759463,0.0759463,0.0759463,0.0759463,-0.600494,-0.924054,-0.0176017,1.10217,-0.0292187,-0.0369179,-0.0350387,0.0174614,0.0055815,-0.00676107,0.00743933,0.0275409,0.0167086,0.0759463,-1.47447,-4.45428,-0.118169,0.0649724,-0.50905,1.18812,-1.25466,4.99255,-0.0242156,-0.563776,0.0832264,0.504075,0.535722,-0.0368075,0.785628,0.0174614,0.0055815,-0.00676107,0.00743933,0.0275409,0.0167086,0,0,0,0,0,0,0,0,0,-0.00142403,-0.00556134,0.000262316,0.045919,-0.000723684,-0.00138819,0.00163983,0.018468,-0.000968814,-0.0341054,-0.0173603,0.00162322
714,0.000344161,-0.0225848,-0.0175602,0.233952,0.0969424,0.0969424,0.0969424,0.0969424,0.0969424,0.0969424,0.0969424,0.0969424,0.0969424,0.786173,-0.886185,0.00305756,1.18465,-0.0225848,-0.0175602,0.233952,0.0157375,-0.017818,0.0247955,0.052416,0.0202055,0.112098,0.0969424,0.283646,-0.629062,0.00673974,0.00307229,0.0581139,-1.32452,-1.73458,0.593533,-0.00952019,-0.0264025,-0.136857,-0.839097,0.0408904,0.0308939,2.33973,0.0157375,-0.017818,0.0247955,0.052416,0.0202055,0.112098,0,0,0,0,0,0,0,0,0,0.00215001,0.000936987,0.000225001,0.887979,-0.000750752,-0.000335783,-0.000345449,0.117587,-0.642528,-0.900976,-0.118754,0.000155033
715,0.000344161,-0.024781,0.00134341,0.250781,0.090626,0.090626,0.090626,0.090626,0.090626,0.090626,0.090626,0.090626,0.090626,0.645097,0.862187,0.00937403,1.07685,-0.024781,0.00134341,0.250781,0.0274308,-0.0403784,0.0274734,0.039948,-0.00451279,0.0651901,0.090626,1.04869,-2.38196,-0.10574,0.209995,0.536077,-1.09934,-1.44003,1.87067,0.010149,-0.125487,0.0623026,-0.414897,-0.0858517,0.0306776,1.60414,0.0274308,-0.0403784,0.0274734,0.039948,-0.00451279,0.0651901,0,0,0,0,0,0,0,0,0,0.00706,0.00397051,-0.000465143,0.841255,-0.00149913,-0.000996038,-0.00115962,-0.103939,-0.523475,-0.851974,0.104517,-0.000930762
716,0.000344161,-0.0809542,0.149661,0.737975,0.0393165,0.0393165,0.0393165,0.0393165,0.0393165,0.0393165,0.0393165,0.0393165,0.0393165,0.640367,0.530081,-0.00416218,0.831308,-0.0809542,0.149661,0.737975,0.045347,-0.0345527,-0.0495148,0.00959022,0.0704179,0.0472921,0.0393165,-0.339899,-0.179421,0.209085,-0.156219,0.273322,0.453142,-19.0823,-0.0129466,-0.0892801,1.0074,-0.762034,16.4114,-1.00084,0.0042497,1.93289,0.045347,-0.0345527,-0.0495148,0.00959022,0.0704179,0.0472921,0,0,0,0,0,0,0,0,0,-0.00466416,-0.00110041,0.00188685,0.896497,-0.000247011,-0.000141526,-2.61033e-05,-0.0706707,-0.54744,-0.892461,0.0637545,0.000630056
717,0.000344161,-0.00315642,-0.0381002,-0.019585,0.0600001,0.0600001,0.0600001,0.0600001,0.0600001,0.0600001,0.0600001,0.0600001,0.0600001,-0.593904,-0.562467,-0.0399999,0.818958,-0.00315642,-0.0381002,-0.019585,0.0053302,-0.0421702,0.00833702,0.00671804,0.0027169,-0.0124009,0.0600001,-2.84113,-3.71602,0.520902,2.80778,2.88939,-0.0421064,0.720939,0.829783,-0.349868,-0.277839,-0.281245,-0.840013,-2.49184,-0.0551759,0.138659,0.0053302,-0.0421702,0.00833702,0.00671804,0.0027169,-0.0124009,0,0,0,0,0,0,0,0,0,-0.00229561,-0.010433,0.00280214,0.0432454,-0.000104064,0.00198518,0.00203024,-0.00651014,-0.00326886,-0.0435831,0.00372486,0.00340811
718,0.000344161,-0.0200987,-0.000146151,-0.000316739,0.0576894,0.0576894,0.0576894,0.0576894,0.0576894,0.0576894,0.0576894,0.0576894,0.0576894,-0.573733,0.572636,-0.0423106,0.811709,-0.0200987,-0.000146151,-0.000316739,-0.0151882,-0.00151989,0.00324583,-0.000541449,0.0150833,-0.00617242,0.0576894,-3.16802,-3.4433,-0.576238,-3.03383,3.32761,-0.0144462,0.729364,0.135782,-0.331803,0.486425,0.259973,-0.60917,2.54755,-0.0343023,-0.119877,-0.0151882,-0.00151989,0.00324583,-0.000541449,0.0150833,-0.00617242,0,0,0,0,0,0,0,0,0,-0.00270328,-0.0118129,-0.0032467,0.0499431,-0.000660012,-0.00253088,0.00244139,0.00727958,-0.00436199,-0.0500551,-0.00452902,0.00390074
719,0.000344161,-0.0223117,-0.0393466,0.327616,0.0380652,0.0380652,0.0380652,0.0380652,0.0380652,0.0380652,0.0380652,0.0380652,0.0380652,0.424491,0.937353,-0.0619348,1.03085,-0.0223117,-0.0393466,0.327616,0.0110707,-0.000211298,0.0204544,0.0135101,0.00227165,0.0153675,0.0380652,-10.9369,14.169,0.620862,-0.734603,-8.36864,-0.317453,-1.81331,-5.77806,-0.0486957,1.73443,-0.0379881,0.987767,-0.960481,-0.0460028,0.49793,0.0110707,-0.000211298,0.0204544,0.0135101,0.00227165,0.0153675,0,0,0,0,0,0,0,0,0,-0.0450001,-0.0419466,0.00180418,0.715092,0.00576341,0.00440233,0.0125068,-0.100148,-0.341962,-0.718062,0.0997905,0.0125295
720,0.000344161,0.0374317,-0.0156824,0.123021,0.0446733,0.0446733,0.0446733,0.0446733,0.0446733,0.0446733,0.0446733,0.0446733,0.0446733,-0.180011,0.897495,0.0553267,0.91704,0.0374317,-0.0156824,0.123021,-0.00155735,0.0386214,0.0179577,-0.000620723,-0.00928903,-0.00324988,0.0446733,9.6225,12.3815,-0.466103,-1.29366,-0.354627,0.766368,-0.417544,-12.0643,-0.0893548,1.4885,0.0251042,0.099958,-0.179158,0.0171423,0.194565,-0.00155735,0.0386214,0.0179577,-0.000620723,-0.00928903,-0.00324988,0,0,0,0,0,0,0,0,0,0.0132654,0.0370914,-0.000658008,0.249745,-0.00243496,-0.0036168,-0.0114632,-0.0377045,-0.0550992,-0.241902,0.0378627,-0.0109438
721,0.000344161,-0.301427,-0.170272,1.43801,0.00834296,0.00834296,0.00834296,0.00834296,0.00834296,0.00834296,0.00834296,0.00834296,0.00834296,0.40091,-0.991657,0.0328634,1.07014,-0.301427,-0.170272,1.43801,0.013666,-0.00363472,0.214966,0.0461182,-0.0131102,0.090981,0.00834296,5.9178,-6.62164,0.0455921,-0.0633813,5.8318,-0.126069,-3.44132,1.09127,0.00822715,0.415044,-0.0241831,1.06122,-0.181391,0.0498364,0.942101,0.013666,-0.00363472,0.214966,0.0461182,-0.0131102,0.090981,0,0,0,0,0,0,0,0,0,0.022258,0.0225882,-0.0011929,0.696183,0.00278315,0.00161247,-0.00679747,0.11225,-0.317376,-0.695294,-0.112623,-0.0063651
722,0.000344161,-0.00739956,-0.0485749,0.0504819,0.0425181,0.0425181,0.0425181,0.0425181,0.0425181,0.0425181,0.0425181,0.0425181,0.0425181,-0.218039,0.696764,-0.0574819,0.732343,-0.00739956,-0.0485749,0.0504819,-0.0213491,-0.0219111,0.0390263,-0.00159311,0.0288878,0.0116496,0.0425181,-8.85326,-13.5067,-1.09547,-4.42475,18.8033,-0.265159,-6.89414,-5.2892,0.100485,8.82267,-0.21366,6.73516,-4.34934,-0.0251459,0.108505,-0.0213491,-0.0219111,0.0390263,-0.00159311,0.0288878,0.0116496,0,0,0,0,0,0,0,0,0,-0.0130609,-0.0342317,-0.0121259,0.217842,-0.000685381,0.000952077,0.0106359,0.00689926,-0.0493474,-0.220103,-0.00874699,0.0100739
723,0.000344161,-0.279607,0.138724,0.204319,0.0282087,0.0282087,0.0282087,0.0282087,0.0282087,0.0282087,0.0282087,0.0282087,0.0282087,-0.156095,-0.671769,-0.0177416,0.689894,-0.279607,0.138724,0.204319,0.0126073,0.0322278,0.0994282,0.0313774,-0.0180976,0.0243124,0.0282087,-2.69215,-3.14169,0.690673,3.65289,10.599,-2.15045,-16.372,-7.17769,-0.228615,-6.49518,0.98886,15.4234,2.70357,0.0035225,0.744277,0.0126073,0.0322278,0.0994282,0.0313774,-0.0180976,0.0243124,0,0,0,0,0,0,0,0,0,-0.00483466,-0.0101105,0.00866036,0.242772,-0.000456059,-0.00143135,0.00230106,-0.00579976,-0.0632706,-0.263282,0.0155074,0.00342642
724,0.000344161,-0.023016,0.0448513,0.399607,0.0481842,0.0481842,0.0481842,0.0481842,0.0481842,0.0481842,0.0481842,0.0481842,0.0481842,0.57019,0.858168,0.0518158,1.03163,-0.023016,0.0448513,0.399607,0.0550451,-0.0185986,0.0403671,0.0256995,-0.00148201,0.037039,0.0481842,7.01179,-14.5635,-0.827921,1.01368,4.45473,-0.741827,-1.19975,10.1318,0.101972,-1.08844,0.00516639,-0.05225,0.0299122,0.0789678,0.852391,0.0550451,-0.0185986,0.0403671,0.0256995,-0.00148201,0.037039,0,0,0,0,0,0,0,0,0,0.0409668,0.026899,-0.00394883,0.807988,-0.00556555,-0.00451637,-0.00779684,-0.0977981,-0.461582,-0.815003,0.0978349,-0.00785517
725,0.000344161,-0.0169494,-0.0688082,0.373216,0.0475002,0.0475002,0.0475002,0.0475002,0.0475002,0.0475002,0.0475002,0.0475002,0.0475002,0.596382,0.9525,-0.0220156,1.12402,-0.0169494,-0.0688082,0.373216,-0.00671905,-0.0249222,0.0102921,0.0350744,-0.012517,0.0364597,0.0475002,-2.864,6.53845,0.135588,-0.150676,-2.65869,-0.81016,-2.12685,-3.86281,-0.00595258,0.188636,0.0354448,0.44265,0.0308488,-0.0184402,1.31099,-0.00671905,-0.0249222,0.0102921,0.0350744,-0.012517,0.0364597,0,0,0,0,0,0,0,0,0,-0.0187332,-0.0110956,0.00041436,0.81457,0.00200231,0.000692294,0.00340358,-0.113777,-0.472881,-0.822569,0.114007,0.00334807
726,0.000344161,-0.389091,-0.341217,1.4274,0.00567591,0.00567591,0.00567591,0.00567591,0.00567591,0.00567591,0.00567591,0.00567591,0.00567591,-0.0765399,-0.695614,0.0943241,0.706141,-0.389091,-0.341217,1.4274,0.120787,0.330981,-0.372005,0.0181561,0.0198386,0.0722003,0.00567591,18.3757,28.232,-2.98781,-8.83232,-73.7537,-0.244377,-1.37502,45.9107,0.694495,26.6787,0.0953217,1.70487,-17.5052,0.0296353,-1.75725,0.120787,0.330981,-0.372005,0.0181561,0.0198386,0.0722003,0,0,0,0,0,0,0,0,0,0.0288598,0.0702006,-0.0322078,0.322683,-0.000578346,0.00563951,-0.0187186,-0.00419591,-0.0879846,-0.328847,0.00534751,-0.0217727
727,0.000344161,-0.0412397,0.0198722,0.163209,0.0263426,0.0263426,0.0263426,0.0263426,0.0263426,0.0263426,0.0263426,0.0263426,0.0263426,0.0117401,-0.973657,0.0291765,0.974165,-0.0412397,0.0198722,0.163209,0.085398,0.00031437,-0.0587845,0.0301162,-0.0116162,0.0397146,0.0263426,5.92706,3.15113,0.134392,0.222639,5.21776,1.39521,-2.71567,-8.32765,0.00418136,0.19375,0.0308549,2.1877,-0.436261,0.014338,0.364768,0.085398,0.00031437,-0.0587845,0.0301162,-0.0116162,0.0397146,0,0,0,0,0,0,0,0,0,0.0108166,0.0230229,-0.00107364,0.391658,0.00147071,0.00242071,-0.00686791,0.0725801,-0.108931,-0.378294,-0.0723877,-0.00676913
728,0.000344161,-0.041193,-0.0518247,0.0431473,0.0555224,0.0555224,0.0555224,0.0555224,0.0555224,0.0555224,0.0555224,0.0555224,0.0555224,-0.546825,0.359857,0.0444776,0.65612,-0.041193,-0.0518247,0.0431473,0.0238487,-0.0145055,0.0318522,0.00685918,0.057021,0.00332433,0.0555224,1.21981,-6.83616,0.932895,0.730067,3.08386,-0.345246,-3.66085,3.79349,0.681742,-2.09412,-0.182214,3.62956,1.41587,0.00633981,-0.0118551,0.0238487,-0.0145055,0.0318522,0.00685918,0.057021,0.00332433,0,0,0,0,0,0,0,0,0,0.000687607,0.0039776,0.00708818,0.0288646,0.000286346,0.00209572,0.00120233,0.0146224,-0.00327822,-0.0319986,-0.0158743,-0.00219236
729,0.000344161,-0.10618,-0.0211096,0.271827,0.05704,0.05704,0.05704,0.05704,0.05704,0.05704,0.05704,0.05704,0.05704,0.569874,-0.876802,0.04296,1.04661,-0.10618,-0.0211096,0.271827,0.1201,-0.0135886,-0.0258102,0.0281041,0.00231361,0.0673859,0.05704,5.82081,-11.8205,0.609265,-0.736006,3.6951,-0.81547,-1.3507,8.23155,0.0661981,0.727836,0.00318305,0.0269136,0.0292795,0.0708736,1.05196,0.1201,-0.0135886,-0.0258102,0.0281041,0.00231361,0.0673859,0,0,0,0,0,0,0,0,0,0.0338978,0.0225813,0.00322029,0.8033,0.00344106,0.00273648,-0.00665172,0.103464,-0.457479,-0.811713,-0.103409,-0.00643193
730,0.000344161,0.201302,0.292084,1.32186,0.0321293,0.0321293,0.0321293,0.0321293,0.0321293,0.0321293,0.0321293,0.0321293,0.0321293,0.88097,-0.236923,-0.0678707,0.914793,0.201302,0.292084,1.32186,0.0338895,-0.0407237,-0.00649261,0.161117,-0.00869894,0.0149125,0.0321293,-0.997411,0.950528,-1.35357,-2.86457,4.78712,-0.204519,-3.0698,-5.93894,2.96425,7.50912,-0.175449,1.87772,-4.93663,-0.11886,-0.129774,0.0338895,-0.0407237,-0.00649261,0.161117,-0.00869894,0.0149125,0,0,0,0,0,0,0,0,0,-0.0685198,-0.0071921,-0.0125917,0.999021,-0.00482642,-0.00135128,0.0132523,0.0561072,-0.794446,-1.00113,-0.0579487,-0.00289423
731,0.000344161,0.0221632,0.0279956,0.27415,0.0636648,0.0636648,0.0636648,0.0636648,0.0636648,0.0636648,0.0636648,0.0636648,0.0636648,0.362658,0.739911,0.0363352,0.824809,0.0221632,0.0279956,0.27415,0.0356482,-0.015047,0.0420151,-0.0250431,-0.0140247,0.0358586,0.0636648,6.87717,-11.2502,-1.2084,0.791579,8.12869,-0.375829,-2.44379,3.09932,0.488572,-3.28066,-0.31044,1.20172,2.46108,0.0595401,0.967914,0.0356482,-0.015047,0.0420151,-0.0250431,-0.0140247,0.0358586,0,0,0,0,0,0,0,0,0,0.0243828,0.0259428,-0.00765546,0.692504,-0.00250868,-0.004579,-0.0063036,-0.056582,-0.313083,-0.695843,0.0533374,-0.00814425
732,0.000344161,0.270185,-0.0380204,0.729416,0.0575827,0.0575827,0.0575827,0.0575827,0.0575827,0.0575827,0.0575827,0.0575827,0.0575827,0.942417,0.734026,0.00105984,1.19455,0.270185,-0.0380204,0.729416,0.0386665,-0.0328898,-0.0600815,0.0424431,-0.0343981,0.059712,0.0575827,0.0609976,-1.62717,-0.004776,-0.146516,-0.0128062,-1.41035,2.95108,1.36979,0.0206185,-0.189969,0.902607,-2.85349,0.374506,0.0731834,-0.827,0.0386665,-0.0328898,-0.0600815,0.0424431,-0.0343981,0.059712,0,0,0,0,0,0,0,0,0,0.00012413,0.000157219,0.00026852,0.925358,-0.000770854,-0.000645178,-2.57936e-05,-0.111122,-0.806849,-0.940063,0.119805,0.000323376
733,0.000344161,0.0961046,-0.0784626,0.251574,0.0175857,0.0175857,0.0175857,0.0175857,0.0175857,0.0175857,0.0175857,0.0175857,0.0175857,-0.170021,0.762889,-0.0824143,0.785938,0.0961046,-0.0784626,0.251574,0.0733786,-0.0456261,0.0565891,-0.00189829,0.0192856,0.0159349,0.0175857,-14.6616,-20.8874,-0.185996,1.2804,15.305,0.0869479,-1.06098,5.48631,0.394803,0.414919,-0.030234,0.956349,-1.61685,-0.0245489,-0.146939,0.0733786,-0.0456261,0.0565891,-0.00189829,0.0192856,0.0159349,0,0,0,0,0,0,0,0,0,-0.021756,-0.0565519,-0.00537806,0.255758,0.000378845,0.00306183,0.0183537,-0.00806216,-0.0611015,-0.254323,0.00795268,0.0163461
734,0.000344161,0.0378315,0.0198743,0.245817,0.0755395,0.0755395,0.0755395,0.0755395,0.0755395,0.0755395,0.0755395,0.0755395,0.0755395,0.378522,0.74268,0.0244605,0.833937,0.0378315,0.0198743,0.245817,0.0243137,-0.0291063,0.0415955,-0.0180352,-0.0165143,0.031426,0.0755395,4.48373,-7.43706,-0.780553,0.735808,5.0453,-0.468787,-2.71282,2.35393,0.313268,-2.22142,-0.305279,1.32576,1.46574,0.0476625,1.14124,0.0243137,-0.0291063,0.0415955,-0.0180352,-0.0165143,0.031426,0,0,0,0,0,0,0,0,0,0.0164181,0.0169067,-0.00494909,0.703126,-0.00189723,-0.0031475,-0.00415733,-0.0591284,-0.323983,-0.707398,0.0559104,-0.00523805
735,0.000344161,0.0885553,-0.0225511,0.557238,0.0315605,0.0315605,0.0315605,0.0315605,0.0315605,0.0315605,0.0315605,0.0315605,0.0315605,0.466444,0.717816,-0.0684395,0.858786,0.0885553,-0.0225511,0.557238,0.0349001,-0.0498076,0.0415955,0.0453105,-0.015142,0.0137377,0.0315605,-11.0557,20.6386,2.33217,-3.78279,-12.1468,-0.34954,-1.86399,-8.58041,-0.698016,6.24367,-0.0769579,0.935497,-2.43833,-0.0564632,0.371261,0.0349001,-0.0498076,0.0415955,0.0453105,-0.015142,0.0137377,0,0,0,0,0,0,0,0,0,-0.0532693,-0.0415851,0.0149128,0.767397,0.00398314,0.00791086,0.0102551,-0.0644334,-0.39094,-0.770476,0.0635124,0.013305
736,0.000344161,-0.038722,-0.00290544,0.0160426,0.0602529,0.0602529,0.0602529,0.0602529,0.0602529,0.0602529,0.0602529,0.0602529,0.0602529,-0.540645,-0.939747,-0.0114702,1.08423,-0.038722,-0.00290544,0.0160426,0.0518271,0.00572506,-0.0410528,0.0119314,0.0154555,0.0104974,0.0602529,-1.15072,-2.39917,-0.0704001,-0.00294334,-0.613856,1.31853,-0.223488,3.05175,-0.00692401,-0.16535,0.025624,0.0946998,0.171199,-0.00434409,0.112746,0.0518271,0.00572506,-0.0410528,0.0119314,0.0154555,0.0104974,0,0,0,0,0,0,0,0,0,-0.00138291,-0.00423938,0.000312376,0.0663274,-0.000686118,-0.000959126,0.00128011,0.0240925,-0.0032505,-0.0535527,-0.0236817,0.00128584
737,0.000344161,-0.133509,0.00665933,0.427789,0.0473836,0.0473836,0.0473836,0.0473836,0.0473836,0.0473836,0.0473836,0.0473836,0.0473836,0.605863,0.952616,0.0257805,1.12925,-0.133509,0.00665933,0.427789,0.0377661,-0.0417034,0.0273209,0.0397651,-0.012579,0.0665977,0.0473836,3.23745,-6.89158,-0.145463,0.241177,2.85837,-0.82646,-2.13675,4.16672,0.00626342,-0.230239,0.0392229,0.385369,-0.0175974,0.0488102,1.3236,0.0377661,-0.0417034,0.0273209,0.0397651,-0.012579,0.0665977,0,0,0,0,0,0,0,0,0,0.0203084,0.0124107,-0.000306808,0.819402,-0.00344969,-0.00156486,-0.00373523,-0.114228,-0.480691,-0.827394,0.114494,-0.00338833
738,0.000344161,0.354775,-0.191113,1.24219,0.0180968,0.0180968,0.0180968,0.0180968,0.0180968,0.0180968,0.0180968,0.0180968,0.0180968,0.756606,-0.341668,-0.0456406,0.831428,0.354775,-0.191113,1.24219,0.111196,0.154344,0.0653534,0.0658525,0.0260892,0.0185211,0.0180968,-0.695001,-17.8216,-0.701806,-8.977,11.2368,0.495277,-13.3276,6.23007,-0.356238,-5.01438,1.25342,10.4628,14.1825,-0.101887,1.62257,0.111196,0.154344,0.0653534,0.0658525,0.0260892,0.0185211,0,0,0,0,0,0,0,0,0,-0.04476,-0.00181415,-0.0126278,0.965434,-0.00447067,0.00715317,-0.000347054,0.0714772,-0.666225,-0.959828,-0.0586821,0.000688044
739,0.000344161,0.0771184,-0.0284328,0.139508,0.0387886,0.0387886,0.0387886,0.0387886,0.0387886,0.0387886,0.0387886,0.0387886,0.0387886,0.0518487,-0.808662,-0.0612114,0.812631,0.0771184,-0.0284328,0.139508,0.0927219,0.0545776,0.00087738,0.00555539,0.00389767,0.0407686,0.0387886,-13.4157,-6.17353,-0.837138,-3.27897,5.24243,0.0236021,-1.65927,0.853983,-0.356475,-2.72168,0.279537,1.21955,6.02908,-0.0372684,0.300215,0.0927219,0.0545776,0.00087738,0.00555539,0.00389767,0.0407686,0,0,0,0,0,0,0,0,0,-0.0267029,-0.0508413,-0.000903664,0.427305,-0.00300192,-0.00692194,0.0140189,0.0369344,-0.134214,-0.427061,-0.0341001,0.015791
740,0.000344161,0.211572,-0.0357419,0.0323772,0.00848895,0.00848895,0.00848895,0.00848895,0.00848895,0.00848895,0.00848895,0.00848895,0.00848895,-0.540483,0.991511,0.0463784,1.13021,0.211572,-0.0357419,0.0323772,-0.058557,0.0598208,0.197602,-0.0113429,-0.0182004,0.0275964,0.00848895,4.34008,10.9186,-0.0481258,0.0377484,4.95854,1.32636,-0.485652,-16.0887,0.000171473,-0.0657554,-0.00587002,0.496103,0.0637489,0.00282334,-0.0428282,-0.058557,0.0598208,0.197602,-0.0113429,-0.0182004,0.0275964,0,0,0,0,0,0,0,0,0,0.00256903,0.0164452,0.00393022,0.0659766,-0.00168622,-0.00381327,-0.00501829,-0.0296625,-0.0022238,-0.0507369,0.0294218,-0.00481033
741,0.000344161,0.116647,0.0255494,0.638772,0.0619733,0.0619733,0.0619733,0.0619733,0.0619733,0.0619733,0.0619733,0.0619733,0.0619733,0.938027,0.374016,-0.00501964,1.00986,0.116647,0.0255494,0.638772,0.0671443,-0.0496054,0.0100479,-0.058126,-0.0480795,0.089822,0.0619733,0.00455241,1.09593,0.0993453,-2.58107,-0.0108779,-1.15345,-2.1992,-1.2017,0.416306,-1.31121,1.47459,0.244649,3.86674,0.0843681,1.31577,0.0671443,-0.0496054,0.0100479,-0.058126,-0.0480795,0.089822,0,0,0,0,0,0,0,0,0,-0.00595219,-0.000338516,0.00147329,0.978539,-0.000329072,-0.000975886,0.0010939,-0.0760301,-0.841834,-0.989973,0.0902952,0.000173951
742,0.000344161,0.0135884,0.0531417,0.0561163,0.0275217,0.0275217,0.0275217,0.0275217,0.0275217,0.0275217,0.0275217,0.0275217,0.0275217,-0.589346,-0.137834,-0.0386418,0.606481,0.0135884,0.0531417,0.0561163,0.0104655,-0.0429032,0.030523,0.0488533,-0.127597,8.99136e-05,0.0275217,-0.0873239,2.69773,0.172609,-2.17478,-1.98031,-0.0890111,0.354996,-0.731014,-0.416304,0.822063,0.175094,-0.28855,1.29957,-0.000858176,-0.122562,0.0104655,-0.0429032,0.030523,0.0488533,-0.127597,8.99136e-05,0,0,0,0,0,0,0,0,0,-0.000718541,0.000129259,0.00157851,0.00446734,-0.000208372,-0.00028145,-0.0013237,-0.00424632,-0.000147641,-0.00505222,0.00472129,0.00050971
743,0.000344161,-0.222269,0.264874,2.73677,0.00546609,0.00546609,0.00546609,0.00546609,0.00546609,0.00546609,0.00546609,0.00546609,0.00546609,0.493903,-0.620556,0.0945339,0.798728,-0.222269,0.264874,2.73677,-0.130383,-0.658463,0.107399,-0.205482,0.132698,0.153179,0.00546609,12.2657,-6.06306,5.66455,-19.029,27.3106,0.0836586,-1.88037,-21.0252,2.7862,38.8504,0.105702,2.41984,-20.0863,0.08594,-3.27624,-0.130383,-0.658463,0.107399,-0.205482,0.132698,0.153179,0,0,0,0,0,0,0,0,0,0.0758986,0.0434206,0.0400952,0.802129,0.00473479,0.00996567,-0.00435236,0.0557732,-0.417343,-0.800219,-0.0533892,-0.0160604
744,0.000344161,0.00152731,-0.023267,0.204804,0.0870261,0.0870261,0.0870261,0.0870261,0.0870261,0.0870261,0.0870261,0.0870261,0.0870261,0.617228,-0.664617,-0.0129739,0.907113,0.00152731,-0.023267,0.204804,0.0736401,0.0125796,0.0182266,0.0377682,-0.00416946,0.0668937,0.0870261,-1.51682,3.59493,-0.469969,0.843721,-1.51109,-0.813647,-3.15065,-2.08537,-0.105814,-0.941984,-0.0832786,1.2168,0.121531,-0.010165,1.72905,0.0736401,0.0125796,0.0182266,0.0377682,-0.00416946,0.0668937,0,0,0,0,0,0,0,0,0,-0.0115949,-0.00553765,-0.00247366,0.851594,-0.00207119,-0.00210023,0.00133804,0.0796075,-0.516275,-0.859548,-0.080482,0.00196191
745,0.000344161,0.115452,-0.0333519,0.0701516,0.0422288,0.0422288,0.0422288,0.0422288,0.0422288,0.0422288,0.0422288,0.0422288,0.0422288,-0.642669,-0.88488,0.0577712,1.09516,0.115452,-0.0333519,0.0701516,-0.0264699,0.0193002,-0.0108731,0.0333726,0.0274068,0.00852919,0.0422288,4.13522,17.6588,0.447389,-0.385853,-0.145748,0.574158,-1.99205,-17.6285,0.218787,2.67141,0.0927746,-0.110453,-2.25221,0.200842,2.03235,-0.0264699,0.0193002,-0.0108731,0.0333726,0.0274068,0.00852919,0,0,0,0,0,0,0,0,0,0.00131848,0.0152703,0.000953717,0.0303641,0.000331825,0.00371317,-0.0040126,0.0120773,-0.000403747,-0.0247312,-0.0108755,-0.00422654
746,0.000344161,0.0140102,0.0708961,0.032794,0.0784572,0.0784572,0.0784572,0.0784572,0.0784572,0.0784572,0.0784572,0.0784572,0.0784572,-0.639157,0.646114,0.0215428,0.909093,0.0140102,0.0708961,0.032794,0.014842,-0.00891896,0.0361233,-0.0203559,0.0034731,-0.00567025,0.0784572,1.47416,4.80133,0.0846536,0.927216,-1.34941,0.189688,-3.99636,-3.46593,0.250696,-0.343601,0.177388,-1.84207,-0.654511,0.105963,5.80563,0.014842,-0.00891896,0.0361233,-0.0203559,0.0034731,-0.00567025,0,0,0,0,0,0,0,0,0,0.00018236,0.00534541,0.000480674,0.035834,-0.000292549,0.000276673,-0.000947875,0.00144558,-0.00166448,-0.0335759,0.000363034,-0.00159811
747,0.000344161,-0.0812912,-0.00524276,0.240525,0.0642535,0.0642535,0.0642535,0.0642535,0.0642535,0.0642535,0.0642535,0.0642535,0.0642535,0.47622,0.888364,0.0357465,1.00859,-0.0812912,-0.00524276,0.240525,0.0744125,-0.0303912,0.00314331,0.0105289,-0.0110035,0.0391958,0.0642535,5.69096,-9.01989,-0.517455,0.627754,3.43031,-0.69558,-1.78349,5.67087,0.0861854,-1.17996,-0.0674318,0.536182,0.557447,0.0553737,1.00678,0.0744125,-0.0303912,0.00314331,0.0105289,-0.0110035,0.0391958,0,0,0,0,0,0,0,0,0,0.0260163,0.0219538,-0.00228533,0.750352,-0.00387026,-0.00319312,-0.00638949,-0.095163,-0.384612,-0.757277,0.0943786,-0.00640021
748,0.000344161,-0.0705109,-0.507666,6.23732,0.00468421,0.00468421,0.00468421,0.00468421,0.00468421,0.00468421,0.00468421,0.00468421,0.00468421,0.893496,0.715473,0.0953158,1.14862,-0.0705109,-0.507666,6.23732,-0.133071,-0.53285,0.0415878,0.292623,0.00578785,0.15871,0.00468421,3.20437,-25.3218,-1.17552,8.70592,4.47777,-0.0966626,0.165507,20.9146,-0.719351,3.57699,0.0518794,-0.196062,-11.7752,0.12388,-6.20676,-0.133071,-0.53285,0.0415878,0.292623,0.00578785,0.15871,0,0,0,0,0,0,0,0,0,0.0874991,0.011979,-0.0096743,0.934351,-0.011135,-0.00740943,-0.00551113,-0.113339,-0.763144,-0.934901,0.113916,-0.00196454
749,0.000344161,-0.164248,-0.00356197,0.0820951,0.0559683,0.0559683,0.0559683,0.0559683,0.0559683,0.0559683,0.0559683,0.0559683,0.0559683,-0.112893,0.717562,0.0400535,0.727492,-0.164248,-0.00356197,0.0820951,0.0519671,0.0193469,0.0962448,-0.00520194,0.036817,0.00323892,0.0559683,7.37941,11.7941,0.747275,2.05811,-19.4978,-0.810922,-8.3691,7.86787,0.175672,-6.73717,-0.467158,7.68315,4.68263,0.0313081,0.603858,0.0519671,0.0193469,0.0962448,-0.00520194,0.036817,0.00323892,0,0,0,0,0,0,0,0,0,0.0109315,0.0283457,0.00999535,0.290383,-0.00046541,-0.00232912,-0.00795887,-0.00182636,-0.0764211,-0.29753,-0.00247705,-0.00863849
750,0.000344161,1.05644,-0.68826,2.34686,0.00518194,0.00518194,0.00518194,0.00518194,0.00518194,0.00518194,0.00518194,0.00518194,0.00518194,0.409153,0.645398,-0.0542934,0.766089,1.05644,-0.68826,2.34686,-0.0404254,0.252994,0.388748,-0.0480253,-0.18182,-0.050673,0.00518194,-8.61509,-42.1846,3.60158,15.6354,31.1914,0.789398,8.14768,9.9367,-1.58777,-9.86017,-0.437233,-11.3138,-5.08698,-0.0697041,0.819295,-0.0404254,0.252994,0.388748,-0.0480253,-0.18182,-0.050673,0,0,0,0,0,0,0,0,0,-0.0419445,-0.0312641,0.0314459,0.754604,0.00224291,0.00709983,0.00383449,-0.048251,-0.351239,-0.742822,0.0420604,0.0114116
751,0.000344161,0.238973,0.0505207,1.00458,0.0334778,0.0334778,0.0334778,0.0334778,0.0334778,0.0334778,0.0334778,0.0334778,0.0334778,0.845876,-0.135382,-0.0219383,0.856922,0.238973,0.0505207,1.00458,0.0770298,0.037896,0.0203171,0.0278705,-0.0465655,0.125748,0.0334778,-0.0463486,-2.26813,-0.124364,-8.45516,2.40244,0.0133235,-4.37983,-0.373275,1.4178,5.39756,0.599427,0.201367,3.00708,-0.0169569,3.17388,0.0770298,0.037896,0.0203171,0.0278705,-0.0465655,0.125748,0,0,0,0,0,0,0,0,0,-0.0230735,-0.00167561,-0.00395538,1.01011,-0.00183816,0.00309071,0.00539935,0.0364714,-0.763776,-1.00977,-0.0309428,-0.00128506
752,0.000344161,-0.770315,-1.99676,5.4759,0.00180271,0.00180271,0.00180271,0.00180271,0.00180271,0.00180271,0.00180271,0.00180271,0.00180271,0.90487,-0.581733,-0.0981973,1.08021,-0.770315,-1.99676,5.4759,0.026501,-0.758414,-0.0537643,-0.0717923,0.115216,-0.0900147,0.00180271,-2.62613,20.0097,-1.54984,8.35564,-3.09644,-0.0305151,0.0711528,-16.143,1.42424,5.88243,-0.0165475,-0.0211037,-12.2413,-0.0384262,-5.52595,0.026501,-0.758414,-0.0537643,-0.0717923,0.115216,-0.0900147,0,0,0,0,0,0,0,0,0,-0.0932984,-0.0114109,-0.0144337,0.950632,-0.0115231,-0.00864892,0.0083495,0.111499,-0.787269,-0.951475,-0.110512,0.000945055
753,0.000344161,-0.043704,-0.0807598,0.366941,0.0713406,0.0713406,0.0713406,0.0713406,0.0713406,0.0713406,0.0713406,0.0713406,0.0713406,0.822275,-0.450486,0.0286594,0.938027,-0.043704,-0.0807598,0.366941,0.0276633,-0.0625388,0.0186539,0.0661441,0.072669,0.0795849,0.0713406,1.09377,-4.57592,0.768419,-0.512899,-0.324959,-0.778879,-4.86742,4.94458,-0.431887,-1.35625,-0.433885,2.03618,1.94991,0.105522,2.46429,0.0276633,-0.0625388,0.0186539,0.0661441,0.072669,0.0795849,0,0,0,0,0,0,0,0,0,0.0266103,0.00452163,0.00479193,0.950371,0.00122275,0.00226687,-0.00291425,0.0821886,-0.721243,-0.957974,-0.0858007,-0.00016
754,0.000344161,-0.0638404,0.00764573,0.060789,0.0871152,0.0871152,0.0871152,0.0871152,0.0871152,0.0871152,0.0871152,0.0871152,0.0871152,-0.300108,0.891997,-0.0128848,0.941217,-0.0638404,0.00764573,0.060789,0.00329652,-0.0220813,0.0113258,0.00358835,0.00312924,0.00496411,0.0871152,-1.90468,-2.86284,0.0688299,0.120806,0.241735,1.05334,0.318163,2.68495,0.0230858,-0.350494,0.0971379,-0.600345,0.222043,-0.000163522,0.221393,0.00329652,-0.0220813,0.0113258,0.00358835,0.00312924,0.00496411,0,0,0,0,0,0,0,0,0,-0.00294413,-0.00734933,-8.93632e-05,0.17804,4.07901e-05,0.000556848,0.00229096,-0.0299556,-0.0305866,-0.167393,0.0309582,0.00218159
755,0.000344161,0.00288582,0.0774295,0.710444,0.0330926,0.0330926,0.0330926,0.0330926,0.0330926,0.0330926,0.0330926,0.0330926,0.0330926,0.765253,-0.843788,-0.0669074,1.14108,0.00288582,0.0774295,0.710444,0.163746,-0.0299453,-0.00553131,-0.0294781,0.00836563,0.104955,0.0330926,-5.26899,22.4513,-0.882019,1.78784,-4.87732,-0.680798,-0.319149,-17.5768,0.0210279,0.165958,-0.0908997,-0.549532,-2.03123,-0.0780799,0.158238,0.163746,-0.0299453,-0.00553131,-0.0294781,0.00836563,0.104955,0,0,0,0,0,0,0,0,0,-0.0598654,-0.0196568,-0.00441537,0.889494,-0.00866693,-0.00470427,0.00582715,0.113338,-0.628867,-0.896357,-0.114163,0.00600378
756,0.000344161,-0.0434203,-0.0246926,0.0490151,0.0792323,0.0792323,0.0792323,0.0792323,0.0792323,0.0792323,0.0792323,0.0792323,0.0792323,-0.490101,-0.661703,0.0207677,0.8237,-0.0434203,-0.0246926,0.0490151,0.0354376,0.000935569,0.0216994,0.0147816,-0.0100074,0.00515354,0.0792323,1.92822,3.24664,-0.224786,-1.18182,-2.32206,0.220487,0.432324,-0.881163,0.0336022,0.371949,-0.233948,-0.569561,0.834559,0.00524699,0.0882214,0.0354376,0.000935569,0.0216994,0.0147816,-0.0100074,0.00515354,0,0,0,0,0,0,0,0,0,0.00113345,0.00748469,-0.00118357,0.0823362,-0.000495339,-0.00105493,-0.00209167,-0.00418491,-0.00988884,-0.0799144,0.00174536,-0.00228158
757,0.000344161,0.00497627,-0.0298196,0.427276,0.0528599,0.0528599,0.0528599,0.0528599,0.0528599,0.0528599,0.0528599,0.0528599,0.0528599,0.738424,-0.717827,-0.0471401,1.03091,0.00497627,-0.0298196,0.427276,0.121594,0.0229838,-0.00814819,0.0143718,0.00282955,0.0697598,0.0528599,-3.95004,14.925,-1.10852,1.48967,-3.27798,-0.908753,-0.881043,-11.652,0.0157029,0.523123,-0.201469,-0.703836,-1.98297,-0.0675137,1.1576,0.121594,0.0229838,-0.00814819,0.0143718,0.00282955,0.0697598,0,0,0,0,0,0,0,0,0,-0.0424624,-0.0147621,-0.00553823,0.890445,-0.00576732,-0.00531713,0.00453052,0.0992641,-0.61827,-0.899614,-0.10125,0.00439137
758,0.000344161,0.229847,-0.051989,0.93714,0.0207529,0.0207529,0.0207529,0.0207529,0.0207529,0.0207529,0.0207529,0.0207529,0.0207529,0.518529,-0.79638,-0.0792471,0.953611,0.229847,-0.051989,0.93714,0.138192,0.00519657,0.0241241,0.0542841,-0.0109224,0.108567,0.0207529,-12.0394,22.8611,-1.82715,2.11695,-7.30554,-0.368636,-0.554458,-15.7854,-0.350609,-2.72942,0.00604152,-0.0417774,0.664462,-0.0581517,-0.340904,0.138192,0.00519657,0.0241241,0.0542841,-0.0109224,0.108567,0,0,0,0,0,0,0,0,0,-0.0626176,-0.0454902,-0.00936832,0.786742,-0.00779652,-0.0088512,0.0125343,0.0858754,-0.424383,-0.790187,-0.0859242,0.014268
759,0.000344161,-0.0569119,-0.00167343,0.275722,0.082945,0.082945,0.082945,0.082945,0.082945,0.082945,0.082945,0.082945,0.082945,0.65046,0.766123,0.017055,1.00515,-0.0569119,-0.00167343,0.275722,0.0309444,-0.0425586,0.0231857,0.044411,0.0192347,0.0627567,0.082945,1.84052,-4.63915,-0.319696,0.466776,1.11359,-1.07426,-1.34415,3.58247,0.0276232,-0.0550102,0.116596,-0.556947,-0.410093,0.0458512,1.62538,0.0309444,-0.0425586,0.0231857,0.044411,0.0192347,0.0627567,0,0,0,0,0,0,0,0,0,0.0136882,0.0069895,-0.00165547,0.852505,-0.00210713,-0.00196707,-0.00200764,-0.0923643,-0.537597,-0.863016,0.0937226,-0.00182477
760,0.000344161,-0.02075,-0.0121967,0.288902,0.0263052,0.0263052,0.0263052,0.0263052,0.0263052,0.0263052,0.0263052,0.0263052,0.0263052,0.219102,0.967402,-0.0736948,0.994637,-0.02075,-0.0121967,0.288902,0.0844507,0.0366979,0.0578384,0.012665,0.0109177,0.000306606,0.0263052,-15.5324,6.04695,0.495341,-0.246821,-14.5981,0.235596,-2.06096,8.57191,-0.0329512,1.75385,-0.0282114,1.61977,-1.49483,-0.0421612,0.152293,0.0844507,0.0366979,0.0578384,0.012665,0.0109177,0.000306606,0,0,0,0,0,0,0,0,0,-0.0420105,-0.0593436,-0.00119271,0.55832,0.00623279,0.00651309,0.0177949,-0.0895065,-0.207997,-0.555386,0.0893336,0.017687
761,0.000344161,0.0788083,-0.0827792,0.0832606,0.0366259,0.0366259,0.0366259,0.0366259,0.0366259,0.0366259,0.0366259,0.0366259,0.0366259,-0.506737,0.500767,-0.0633741,0.715239,0.0788083,-0.0827792,0.0832606,0.0103574,-0.009606,0.0199609,-0.0323574,0.0534278,0.00289571,0.0366259,-4.05517,0.770824,-1.58317,-5.73201,3.80747,-0.14828,-2.30816,-4.6571,-0.436074,4.59542,0.0599357,2.27102,1.21937,-0.00989059,-0.0461185,0.0103574,-0.009606,0.0199609,-0.0323574,0.0534278,0.00289571,0,0,0,0,0,0,0,0,0,-0.00434615,-0.0150084,-0.0107064,0.0603706,-0.0013813,-0.0052213,0.0028735,0.0166652,-0.00755856,-0.0616538,-0.0155315,0.00518068
762,0.000344161,0.717637,0.125489,0.586767,0.00571904,0.00571904,0.00571904,0.00571904,0.00571904,0.00571904,0.00571904,0.00571904,0.00571904,-0.347169,0.618545,-0.094281,0.715551,0.717637,0.125489,0.586767,-0.0637262,0.0677797,0.0101328,-0.0283188,-0.00732434,-0.0302424,0.00571904,-10.4005,-10.4847,-2.51416,-9.254,18.3835,-0.046277,-1.18537,-8.61644,0.279356,14.2445,-0.027794,1.34366,-5.11594,-0.012554,-0.745056,-0.0637262,0.0677797,0.0101328,-0.0283188,-0.00732434,-0.0302424,0,0,0,0,0,0,0,0,0,-0.0133252,-0.0404874,-0.0198914,0.138134,-0.0019915,-0.00457242,0.0130891,0.0193886,-0.0255613,-0.138496,-0.0197398,0.0116199
763,0.000344161,-0.0225413,-0.0108594,0.029031,0.0873477,0.0873477,0.0873477,0.0873477,0.0873477,0.0873477,0.0873477,0.0873477,0.0873477,-0.489216,-0.886543,-0.0126523,1.01265,-0.0225413,-0.0108594,0.029031,0.0406074,-0.00214376,0.00482178,0.00772844,0.0112758,0.00966817,0.0873477,-1.37387,-2.44017,-0.0826763,0.0195162,0.319688,0.932524,0.459659,2.14302,-0.00441388,-0.00152235,-0.0287191,-0.572937,-0.0071344,0.00160239,0.084247,0.0406074,-0.00214376,0.00482178,0.00772844,0.0112758,0.00966817,0,0,0,0,0,0,0,0,0,-0.00170729,-0.00514474,3.00116e-05,0.0859188,-0.000685835,-0.000878212,0.00153812,0.021152,-0.00779581,-0.0765454,-0.0213265,0.0015779
764,0.000344161,-0.0931184,-0.00729518,0.0882715,0.0348594,0.0348594,0.0348594,0.0348594,0.0348594,0.0348594,0.0348594,0.0348594,0.0348594,-0.366403,0.965141,-0.0069298,1.03237,-0.0931184,-0.00729518,0.0882715,-0.0185874,-0.0160175,-0.00384712,0.0154863,0.0135453,0.00262073,0.0348594,-0.916324,-1.33001,0.0184521,0.00712143,-0.472084,1.55992,0.610922,1.89521,0.000111371,-0.0651713,0.0367635,-0.886248,0.065345,0.00448615,0.187055,-0.0185874,-0.0160175,-0.00384712,0.0154863,0.0135453,0.00262073,0,0,0,0,0,0,0,0,0,-0.00164676,-0.00362201,-0.000348716,0.143546,-7.34124e-05,0.000373062,0.00113053,-0.0382273,-0.0182298,-0.127985,0.0387304,0.00108808
765,0.000344161,-0.0360727,-0.0110828,0.11435,0.0657192,0.0657192,0.0657192,0.0657192,0.0657192,0.0657192,0.0657192,0.0657192,0.0657192,-0.192742,0.934281,0.0198579,0.954162,-0.0360727,-0.0110828,0.11435,0.0205228,-0.010139,-0.0260849,0.00645703,0.00184488,-0.00250757,0.0657192,3.36734,4.27745,-0.130736,-0.270274,0.925069,1.32037,-0.206397,-5.16645,-0.0149407,0.425613,0.0385806,-0.166874,-0.144256,0.00886684,0.258921,0.0205228,-0.010139,-0.0260849,0.00645703,0.00184488,-0.00250757,0,0,0,0,0,0,0,0,0,0.00418413,0.0130327,8.14588e-05,0.243751,-0.00122921,-0.0014902,-0.00394904,-0.0442717,-0.0503087,-0.230808,0.044676,-0.00387483
766,0.000344161,-0.176749,-0.00383496,0.26153,0.0223103,0.0223103,0.0223103,0.0223103,0.0223103,0.0223103,0.0223103,0.0223103,0.0223103,-0.243864,-0.811265,0.0776897,0.85068,-0.176749,-0.00383496,0.26153,0.0302832,-0.107464,0.0030365,0.0300963,-0.00537527,0.0279627,0.0223103,12.3465,19.4336,0.261559,1.50647,-7.76412,0.295709,-0.283656,-11.4927,-0.39479,-2.9063,-0.0410881,0.0621632,1.40366,0.0185129,-0.0400379,0.0302832,-0.107464,0.0030365,0.0300963,-0.00537527,0.0279627,0,0,0,0,0,0,0,0,0,0.0155942,0.0479702,-0.000429726,0.205808,0.000886982,0.00197068,-0.0157372,0.0181762,-0.0430075,-0.202821,-0.0186408,-0.0136814
767,0.000344161,-0.407218,0.349711,2.54186,0.00200884,0.00200884,0.00200884,0.00200884,0.00200884,0.00200884,0.00200884,0.00200884,0.00200884,-0.349722,-0.628286,0.0979912,0.725707,-0.407218,0.349711,2.54186,0.856949,-0.0660472,0.0286837,0.0263069,-0.0662079,0.0114789,0.00200884,10.3463,12.3805,-2.17802,-8.45014,-18.0401,-0.00910996,-0.239495,6.06679,-0.470632,10.966,0.00639258,0.312545,-2.8656,0.0107471,-2.61491,0.856949,-0.0660472,0.0286837,0.0263069,-0.0662079,0.0114789,0,0,0,0,0,0,0,0,0,0.0126827,0.0435763,-0.0172176,0.13778,-0.00196038,-0.00522305,-0.0146614,-0.0173767,-0.0251802,-0.137585,0.0167785,-0.0123286
768,0.000344161,-0.218977,0.221128,1.19779,0.0150972,0.0150972,0.0150972,0.0150972,0.0150972,0.0150972,0.0150972,0.0150972,0.0150972,0.608491,0.721514,0.0849028,0.947656,-0.218977,0.221128,1.19779,-0.0507901,0.220727,0.051178,0.00319624,0.0386038,0.06918,0.0150972,10.2404,-24.6955,-2.40491,3.13425,7.84645,-0.286501,-0.498676,17.0681,0.312675,-2.10119,0.0299773,-0.0406562,-1.25418,0.0998486,-0.658463,-0.0507901,0.220727,0.051178,0.00319624,0.0386038,0.06918,0,0,0,0,0,0,0,0,0,0.0706149,0.0386313,-0.011784,0.845649,-0.00752103,-0.0100579,-0.0107374,-0.0824893,-0.506076,-0.848002,0.0831751,-0.0114716
769,0.000344161,-0.0576324,0.0753086,1.12714,0.0211609,0.0211609,0.0211609,0.0211609,0.0211609,0.0211609,0.0211609,0.0211609,0.0211609,0.794045,0.850377,0.0788391,1.16613,-0.0576324,0.0753086,1.12714,0.104571,-0.0294759,-0.0061264,0.0521306,-0.00467682,0.00239325,0.0211609,5.16997,-26.7546,-0.91914,2.54419,5.78119,-0.483361,-0.083865,21.0311,-0.048387,0.445093,0.0833474,-0.412723,-3.06459,0.129015,-0.630549,0.104571,-0.0294759,-0.0061264,0.0521306,-0.00467682,0.00239325,0,0,0,0,0,0,0,0,0,0.0698017,0.0201307,-0.00474073,0.900275,-0.00942056,-0.00474542,-0.00622323,-0.112639,-0.656261,-0.90517,0.113426,-0.0055849
770,0.000344161,0.0116095,-0.0127378,-0.0075814,0.0557511,0.0557511,0.0557511,0.0557511,0.0557511,0.0557511,0.0557511,0.0557511,0.0557511,-0.630252,0.0274685,-0.02377,0.631298,0.0116095,-0.0127378,-0.0075814,0.0254555,-0.00598389,0.0239989,0.00463208,0.0184996,0.00420407,0.0557511,-0.0453244,0.867898,-0.0204612,0.159828,-0.807202,-0.0593555,-0.188618,-0.0723051,-0.152088,-0.128046,-0.004283,0.0167569,-0.0190443,-0.00692746,0.179443,0.0254555,-0.00598389,0.0239989,0.00463208,0.0184996,0.00420407,0,0,0,0,0,0,0,0,0,-0.000601538,9.68644e-05,-0.000172832,0.00215375,-0.000364253,-9.16186e-05,-0.000541069,0.000770728,0.00024458,-0.00250731,-0.000628562,0.000182592
771,0.000344161,-0.455741,0.057445,1.76663,0.00321132,0.00321132,0.00321132,0.00321132,0.00321132,0.00321132,0.00321132,0.00321132,0.00321132,-0.130488,0.78211,0.0967887,0.798806,-0.455741,0.057445,1.76663,0.0801132,0.0381525,0.0319271,0.145627,-0.0148625,0.104676,0.00321132,18.1201,23.0696,-0.275901,-2.58696,-16.115,0.0164277,-0.151335,-6.49882,-0.438547,0.160882,-0.0041488,0.155936,2.36863,0.0183191,-1.77123,0.0801132,0.0381525,0.0319271,0.145627,-0.0148625,0.104676,0,0,0,0,0,0,0,0,0,0.0269321,0.0701968,0.00270574,0.283559,-0.00180908,-0.00508322,-0.0222688,-0.0139562,-0.0717678,-0.283075,0.0137661,-0.0201892
772,0.000344161,0.487175,0.428853,1.78441,0.0209651,0.0209651,0.0209651,0.0209651,0.0209651,0.0209651,0.0209651,0.0209651,0.0209651,0.845717,-0.616058,-0.0790349,1.04929,0.487175,0.428853,1.78441,0.127591,-0.180711,-0.0610428,-0.0379539,0.0672455,0.0510488,0.0209651,-3.62064,21.7568,-1.79267,4.72379,-3.49962,-0.390611,-0.119156,-18.7444,0.741253,3.97032,-0.206052,-0.414553,-9.12296,-0.0912846,-1.2507,0.127591,-0.180711,-0.0610428,-0.0379539,0.0672455,0.0510488,0,0,0,0,0,0,0,0,0,-0.0740395,-0.0141999,-0.0110247,0.933804,-0.00918865,-0.00870908,0.00678186,0.104098,-0.727615,-0.938321,-0.105486,0.00306419
773,0.000344161,0.0961647,0.0736828,0.955536,0.0146976,0.0146976,0.0146976,0.0146976,0.0146976,0.0146976,0.0146976,0.0146976,0.0146976,0.270128,0.747214,0.0853024,0.799109,0.0961647,0.0736828,0.955536,-0.0750902,0.0970269,0.067379,0.00862765,0.0361156,-0.00603056,0.0146976,18.5169,-20.656,-2.56661,-4.70243,15.0725,-0.0969423,-0.0302595,5.48734,1.05274,-3.12287,-0.120635,-0.218964,7.75162,0.0645407,-0.706313,-0.0750902,0.0970269,0.067379,0.00862765,0.0361156,-0.00603056,0,0,0,0,0,0,0,0,0,0.0521109,0.0696378,-0.0140883,0.620757,-0.00437822,-0.0106075,-0.0172643,-0.0445228,-0.252487,-0.621053,0.0436776,-0.0222786
774,0.000344161,0.0435972,0.0479951,0.366477,0.0639,0.0639,0.0639,0.0639,0.0639,0.0639,0.0639,0.0639,0.0639,0.923021,-0.171731,-0.0361,0.939554,0.0435972,0.0479951,0.366477,0.115008,0.0450635,0.00341797,-0.128836,-0.0259643,0.135554,0.0639,-0.236662,3.53016,-0.594766,4.03865,2.29388,-0.471224,-6.9476,-5.86764,2.32246,3.48477,-0.581581,3.36851,-7.57142,-0.0603367,3.21261,0.115008,0.0450635,0.00341797,-0.128836,-0.0259643,0.135554,0,0,0,0,0,0,0,0,0,-0.0373916,-0.0030858,-0.00632379,1.01196,-0.00252827,0.000826758,0.00849061,0.0425201,-0.840458,-1.01664,-0.0485955,-0.00210144
775,0.000344161,-0.378557,0.182679,0.447603,0.0167572,0.0167572,0.0167572,0.0167572,0.0167572,0.0167572,0.0167572,0.0167572,0.0167572,-0.218306,-0.629192,-0.0328111,0.666795,-0.378557,0.182679,0.447603,-0.0301842,0.0943498,-0.0637302,-0.0292477,0.00211382,0.0257987,0.0167572,-3.67175,-0.898382,1.53378,9.65091,15.4467,-2.38283,-16.6369,-14.1698,-0.699006,-17.154,1.33178,15.7608,7.32038,0.0251318,0.428458,-0.0301842,0.0943498,-0.0637302,-0.0292477,0.00211382,0.0257987,0,0,0,0,0,0,0,0,0,-0.00675646,-0.0134567,0.018627,0.191348,-0.00010425,-0.00234577,0.00141172,-0.0137385,-0.0475219,-0.215813,0.0270775,0.00530764
776,0.000344161,-0.0142363,-0.0222806,0.0778639,0.0881197,0.0881197,0.0881197,0.0881197,0.0881197,0.0881197,0.0881197,0.0881197,0.0881197,-0.0947721,-0.829481,0.0118803,0.834962,-0.0142363,-0.0222806,0.0778639,0.0836762,-0.0131359,0.00431061,0.0262169,-0.0128014,0.0291755,0.0881197,2.26015,2.29253,0.0759913,0.416028,-0.773302,0.59563,-2.31209,-1.50499,-0.0156179,0.154275,0.165033,1.75088,-0.548022,0.00756501,0.483351,0.0836762,-0.0131359,0.00431061,0.0262169,-0.0128014,0.0291755,0,0,0,0,0,0,0,0,0,0.0031156,0.00896008,0.000306181,0.311246,-0.00023737,0.000322373,-0.00270604,0.0298894,-0.0796175,-0.305246,-0.0283671,-0.00257533
777,0.000344161,-1.09282,0.387133,15.9946,0.00175941,0.00175941,0.00175941,0.00175941,0.00175941,0.00175941,0.00175941,0.00175941,0.00175941,0.819286,0.703919,0.0982406,1.08461,-1.09282,0.387133,15.9946,0.367834,-0.320007,-0.0201035,0.163044,0.0246506,0.0886893,0.00175941,5.12938,-27.9648,-1.72071,8.06044,6.09321,-0.0396357,0.036474,22.9644,-0.406635,1.80707,0.0195197,-0.0771613,-10.2546,0.0857246,-15.9539,0.367834,-0.320007,-0.0201035,0.163044,0.0246506,0.0886893,0,0,0,0,0,0,0,0,0,0.0891007,0.021223,-0.0105082,0.922443,-0.0107204,-0.00989895,-0.00748108,-0.105077,-0.695448,-0.92304,0.105519,-0.00539105
778,0.000344161,-0.161973,0.035023,0.399982,0.0609033,0.0609033,0.0609033,0.0609033,0.0609033,0.0609033,0.0609033,0.0609033,0.0609033,0.749941,0.540915,-0.0390967,0.925489,-0.161973,0.035023,0.399982,0.121935,-0.114588,0.0352478,0.0256394,-0.00703907,0.0194281,0.0609033,-2.55319,7.52142,1.28567,-1.68332,-0.721265,-0.675766,-3.88705,-6.63818,0.13608,-0.0516925,0.244626,1.7928,1.69999,-0.0645739,1.69427,0.121935,-0.114588,0.0352478,0.0256394,-0.00703907,0.0194281,0,0,0,0,0,0,0,0,0,-0.0369356,-0.00948551,0.00785848,0.921189,0.00256157,0.00385231,0.00347939,-0.0803007,-0.64653,-0.927594,0.0826766,0.00244506
779,0.000344161,-0.0796518,-0.020072,0.0885208,0.0498386,0.0498386,0.0498386,0.0498386,0.0498386,0.0498386,0.0498386,0.0498386,0.0498386,-0.329108,0.91504,-0.0501614,0.973718,-0.0796518,-0.020072,0.0885208,-0.0382104,-0.0570579,-0.026473,-0.000869036,0.00771523,-0.000648022,0.0498386,-7.00071,-11.4912,0.308256,0.31862,-0.202554,0.90389,0.303034,11.7734,0.0553929,-1.15272,0.0618775,-0.592249,0.854176,-0.00649412,0.200694,-0.0382104,-0.0570579,-0.026473,-0.000869036,0.00771523,-0.000648022,0,0,0,0,0,0,0,0,0,-0.00873904,-0.0271274,-4.36023e-05,0.159446,0.00128709,0.00255558,0.00833977,-0.0326006,-0.0254276,-0.150672,0.0332965,0.00803144
780,0.000344161,-0.120694,0.159141,1.13554,0.0263959,0.0263959,0.0263959,0.0263959,0.0263959,0.0263959,0.0263959,0.0263959,0.0263959,0.973604,0.774042,-0.0119863,1.24386,-0.120694,0.159141,1.13554,0.0736952,-0.022267,-0.11702,0.0940314,0.0757542,0.0858727,0.0263959,0.00387575,-0.360068,0.0233374,-1.76612,-0.0732553,-1.23769,10.302,0.554017,0.155714,-0.938348,1.01057,-3.75088,2.54532,0.101935,-7.6867,0.0736952,-0.022267,-0.11702,0.0940314,0.0757542,0.0858727,0,0,0,0,0,0,0,0,0,-0.0119021,-0.000206519,0.00138838,0.923334,0.000674685,-0.00137768,0.000654352,-0.112615,-0.831254,-0.936881,0.123478,0.000344666
781,0.000344161,0.322683,-0.15144,2.15443,0.0147079,0.0147079,0.0147079,0.0147079,0.0147079,0.0147079,0.0147079,0.0147079,0.0147079,0.782861,0.715727,-0.0852921,1.06415,0.322683,-0.15144,2.15443,-0.0509543,0.112359,-0.057518,-0.00494272,0.0140314,0.0913479,0.0147079,-5.66247,25.498,1.67023,-3.9581,-5.32031,-0.302866,0.0498404,-20.5004,0.222841,-1.64325,0.090401,-0.358628,5.75279,-0.0720348,-1.84564,-0.0509543,0.112359,-0.057518,-0.00494272,0.0140314,0.0913479,0,0,0,0,0,0,0,0,0,-0.0780749,-0.0222484,0.0097827,0.909708,0.00798458,0.0080432,0.0074082,-0.101537,-0.660729,-0.913312,0.102581,0.00641528
782,0.000344161,-0.0290279,-0.0280102,-0.0992688,0.0245645,0.0245645,0.0245645,0.0245645,0.0245645,0.0245645,0.0245645,0.0245645,0.0245645,-0.531142,0.975436,-0.0606946,1.11233,-0.0290279,-0.0280102,-0.0992688,0.0310359,-0.0219375,0.0279694,0.0162433,-0.00193262,0.00315666,0.0245645,-5.90045,-13.2676,0.18234,-0.109685,-6.10188,1.02157,0.0699407,19.3985,-0.00369176,0.311276,-0.00471726,0.0585594,-0.173582,-0.00370286,-0.0292313,0.0310359,-0.0219375,0.0279694,0.0162433,-0.00193262,0.00315666,0,0,0,0,0,0,0,0,0,-0.00488631,-0.0225885,-0.00277308,0.0662924,0.0014027,0.00437711,0.0068213,-0.0284199,-0.00327418,-0.0557971,0.0283534,0.00675581
783,0.000344161,0.0549583,-0.0129805,0.825856,0.0512734,0.0512734,0.0512734,0.0512734,0.0512734,0.0512734,0.0512734,0.0512734,0.0512734,0.948727,0.239576,0.0114692,0.978576,0.0549583,-0.0129805,0.825856,0.0998299,-0.0422677,0.00271606,-0.0492458,-0.0881734,0.0826921,0.0512734,0.048602,-2.17074,-0.14539,1.83262,-0.132182,-0.924345,-4.54572,2.24797,-0.321438,0.461433,1.46176,3.25711,-2.28108,0.109699,0.462747,0.0998299,-0.0422677,0.00271606,-0.0492458,-0.0881734,0.0826921,0,0,0,0,0,0,0,0,0,0.0103975,0.000776614,-0.00157604,1.00295,-0.00137239,-0.00030053,-0.00181896,-0.0524097,-0.863172,-1.01217,0.0661456,0.00099641
784,0.000344161,-0.067688,-0.0836589,0.469635,0.0544051,0.0544051,0.0544051,0.0544051,0.0544051,0.0544051,0.0544051,0.0544051,0.0544051,0.735845,-0.575572,0.0455949,0.935324,-0.067688,-0.0836589,0.469635,0.0759205,-0.0778772,-0.0195999,0.0416667,0.00163841,0.0778158,0.0544051,3.1323,-9.27437,1.36227,-1.85394,1.56898,-0.712956,-2.94996,7.77308,-0.111578,-0.0226172,-0.215387,1.02715,1.96021,0.108333,1.45317,0.0759205,-0.0778772,-0.0195999,0.0416667,0.00163841,0.0778158,0,0,0,0,0,0,0,0,0,0.0408758,0.0122052,0.00800232,0.909663,0.00277249,0.00484165,-0.00418546,0.0851802,-0.629335,-0.916988,-0.0873176,-0.00290517
785,0.000344161,0.787739,-0.156521,1.30384,0.00183777,0.00183777,0.00183777,0.00183777,0.00183777,0.00183777,0.00183777,0.00183777,0.00183777,-0.577171,-0.787966,-0.0981622,0.981658,0.787739,-0.156521,1.30384,-1.48047,-0.199306,-0.12878,-0.430277,0.00687122,0.231514,0.00183777,-7.07543,-32.4813,-0.225304,1.09915,4.47988,0.0619762,-0.293247,27.2136,-0.0271024,-0.28591,-0.000830464,-0.0652515,-0.656719,-0.00481608,-0.945346,-1.48047,-0.199306,-0.12878,-0.430277,0.00687122,0.231514,0,0,0,0,0,0,0,0,0,-0.00587236,-0.0326411,-0.00123045,0.05006,-0.00119462,-0.00301565,0.00785147,0.00816774,-0.00416754,-0.0507281,-0.00810733,0.0112719
786,0.000344161,0.184108,-0.0865443,0.0361839,0.0314889,0.0314889,0.0314889,0.0314889,0.0314889,0.0314889,0.0314889,0.0314889,0.0314889,-0.45268,0.532668,-0.0685111,0.702387,0.184108,-0.0865443,0.0361839,0.0215533,-0.0276077,0.0124292,-0.0227506,0.0471467,-0.000236511,0.0314889,-5.01238,0.255879,-1.89906,-6.47878,5.79004,-0.187393,-3.9434,-6.23002,-0.342838,8.05409,-0.0514186,3.80623,-1.48877,-0.0120864,0.100985,0.0215533,-0.0276077,0.0124292,-0.0227506,0.0471467,-0.000236511,0,0,0,0,0,0,0,0,0,-0.00601182,-0.0187594,-0.0142485,0.0806679,-0.0016407,-0.00501814,0.00436675,0.0199239,-0.0120315,-0.0824176,-0.0199667,0.00613308
787,0.000344161,-0.149,-0.0588063,0.0806936,0.0430334,0.0430334,0.0430334,0.0430334,0.0430334,0.0430334,0.0430334,0.0430334,0.0430334,-0.506926,-0.737959,0.0569666,0.897108,-0.149,-0.0588063,0.0806936,-0.0111645,-0.0054577,0.0239534,0.0300778,0.0133798,0.00432134,0.0430334,5.51848,9.3418,-0.123009,-1.88467,-5.05547,0.288536,0.784374,-4.13733,0.0963144,0.228259,-0.112339,-0.835675,1.71522,0.00338219,-0.0293926,-0.0111645,-0.0054577,0.0239534,0.0300778,0.0133798,0.00432134,0,0,0,0,0,0,0,0,0,0.00391301,0.0210272,-0.000851153,0.0783475,-0.000165144,-0.000433516,-0.00587736,0.00466122,-0.00858087,-0.0752226,-0.00565081,-0.0064708
788,0.000344161,0.235706,-0.0534096,0.190522,0.0176955,0.0176955,0.0176955,0.0176955,0.0176955,0.0176955,0.0176955,0.0176955,0.0176955,-0.208512,-0.860308,-0.0823045,0.889034,0.235706,-0.0534096,0.190522,0.224096,0.105285,-0.0174809,-0.0436282,-0.0184569,-0.0421443,0.0176955,-14.0056,-19.8156,-0.653996,-2.17345,4.05016,0.294301,-0.266391,15.5298,0.290422,3.24287,-0.0234149,-0.00724314,-1.01601,-0.0187981,0.0831122,0.224096,0.105285,-0.0174809,-0.0436282,-0.0184569,-0.0421443,0,0,0,0,0,0,0,0,0,-0.0195751,-0.0532204,-0.000829366,0.226629,-0.00295215,-0.00465774,0.0169213,0.0293917,-0.0494289,-0.223861,-0.0298104,0.0153826
789,0.000344161,0.283705,0.0040741,0.114602,0.0211273,0.0211273,0.0211273,0.0211273,0.0211273,0.0211273,0.0211273,0.0211273,0.0211273,-0.429302,-0.520841,-0.0788727,0.679556,0.283705,0.0040741,0.114602,0.0179436,0.0113756,0.0117283,0.00519812,-0.0170143,-0.0174968,0.0211273,-5.38787,5.93797,2.41206,7.72067,5.00993,-0.259714,-5.33308,-11.2316,-0.573587,-15.1001,0.18411,5.15078,7.37536,-0.0129495,0.0676929,0.0179436,0.0113756,0.0117283,0.00519812,-0.0170143,-0.0174968,0,0,0,0,0,0,0,0,0,-0.0070532,-0.0199626,0.0199047,0.085741,0.00123044,0.00432961,0.00404508,-0.0234469,-0.013664,-0.0882208,0.0251179,0.0067348
790,0.000344161,0.0450958,-0.0257322,0.120387,0.0680128,0.0680128,0.0680128,0.0680128,0.0680128,0.0680128,0.0680128,0.0680128,0.0680128,0.712447,-0.494722,-0.016433,0.867525,0.0450958,-0.0257322,0.120387,0.0844495,0.040281,-0.0194397,0.0472145,-0.0312624,0.0669856,0.0680128,-1.0083,-0.133466,-0.627364,0.713383,0.558745,-0.173173,-12.612,-0.470375,-0.160277,-2.31556,0.272857,10.2089,1.6279,-0.0217708,2.28278,0.0844495,0.040281,-0.0194397,0.0472145,-0.0312624,0.0669856,0,0,0,0,0,0,0,0,0,-0.0157133,-0.00347497,-0.0045209,0.920433,-0.00236241,-0.00134993,0.000578949,0.0768804,-0.614335,-0.922359,-0.0744645,0.00137034
791,0.000344161,-0.00187016,0.0375366,0.635081,0.0579286,0.0579286,0.0579286,0.0579286,0.0579286,0.0579286,0.0579286,0.0579286,0.0579286,0.942071,-0.308987,0.0302889,0.991912,-0.00187016,0.0375366,0.635081,0.088005,-0.0319884,-0.0520248,0.0568849,0.0972395,0.0651675,0.0579286,0.177373,-6.71051,0.454658,-7.17851,-0.240713,-0.954197,-3.7388,6.95309,-1.17922,-2.54032,-1.39145,1.37589,9.6813,0.119223,1.72783,0.088005,-0.0319884,-0.0520248,0.0568849,0.0972395,0.0651675,0,0,0,0,0,0,0,0,0,0.0292361,0.00210292,0.0045343,0.990001,0.000993265,-0.000307597,-0.00483562,0.0693627,-0.850595,-1.00006,-0.0823048,0.00169799
792,0.000344161,-0.074213,-0.194764,0.485778,0.0707145,0.0707145,0.0707145,0.0707145,0.0707145,0.0707145,0.0707145,0.0707145,0.0707145,0.929286,0.174087,-0.0224788,0.945718,-0.074213,-0.194764,0.485778,0.127341,-0.0868699,0.0384979,-0.185709,-0.00511026,0.126131,0.0707145,-0.11175,2.97818,0.335026,-3.94388,1.43949,-0.593708,-8.11756,-4.34345,1.63424,-2.37596,0.764972,4.03517,6.51461,0.00435485,3.59661,0.127341,-0.0868699,0.0384979,-0.185709,-0.00511026,0.126131,0,0,0,0,0,0,0,0,0,-0.0238671,-0.00176197,0.00327448,1.01222,9.85619e-05,-0.000792919,0.00540271,-0.0399625,-0.847166,-1.01777,0.0475611,-0.0011875
793,0.000344161,0.045039,-0.0497769,0.384981,0.0515026,0.0515026,0.0515026,0.0515026,0.0515026,0.0515026,0.0515026,0.0515026,0.0515026,0.823035,0.278393,-0.000430726,0.868844,0.045039,-0.0497769,0.384981,0.0739577,-0.0706944,0.00416565,0.00565218,0.0592771,0.0881301,0.0515026,-0.0313747,-0.0555592,0.0537265,1.04045,0.5467,-0.0703794,-12.0745,-0.53618,0.190673,-0.768971,-0.489174,8.36036,-0.221704,0.0448687,3.32915,0.0739577,-0.0706944,0.00416565,0.00565218,0.0592771,0.0881301,0,0,0,0,0,0,0,0,0,-0.00149987,-0.000216209,0.00046697,0.985494,-0.000653701,-0.000636649,0.000552504,-0.0602638,-0.735137,-0.986156,0.0559648,0.00023587
794,0.000344161,-0.124521,-0.0157038,0.0402239,0.0692262,0.0692262,0.0692262,0.0692262,0.0692262,0.0692262,0.0692262,0.0692262,0.0692262,-0.415051,-0.872963,0.0307738,0.967099,-0.124521,-0.0157038,0.0402239,0.0532902,-0.0138763,0.0241222,0.0279384,-0.0113597,0.00643885,0.0692262,3.62304,6.89737,0.155604,-0.186589,-1.12956,0.835002,0.645685,-5.64329,-0.0429735,-0.429328,-0.0766128,-0.760066,0.631621,0.00754413,0.0741567,0.0532902,-0.0138763,0.0241222,0.0279384,-0.0113597,0.00643885,0,0,0,0,0,0,0,0,0,0.00300562,0.014141,0.000508049,0.117286,0.000257229,0.000909231,-0.00431588,0.022747,-0.0149937,-0.108694,-0.0236268,-0.00417079
795,0.000344161,-0.406311,-0.0768679,0.295916,0.00475057,0.00475057,0.00475057,0.00475057,0.00475057,0.00475057,0.00475057,0.00475057,0.00475057,-0.537636,0.916915,0.0952494,1.06717,-0.406311,-0.0768679,0.295916,-0.100789,-0.32341,0.118288,0.0661781,0.0505633,-0.0610323,0.00475057,9.11614,19.6999,-0.515254,0.295626,1.79085,0.119533,-0.265615,-21.0844,0.0200274,-0.419824,-0.0013032,-0.016086,0.201065,-0.00173164,-0.0142151,-0.100789,-0.32341,0.118288,0.0661781,0.0505633,-0.0610323,0,0,0,0,0,0,0,0,0,0.00561128,0.0346474,-0.00234046,0.0605023,-0.00237868,-0.00604617,-0.00999835,-0.0208303,-0.00464798,-0.0581241,0.0213229,-0.0107432
796,0.000344161,1.74013,-0.252741,3.76454,0.00977101,0.00977101,0.00977101,0.00977101,0.00977101,0.00977101,0.00977101,0.00977101,0.00977101,0.91471,-0.0422515,-0.090229,0.92012,1.74013,-0.252741,3.76454,-0.127619,-0.135425,0.0533447,0.686585,-0.0301303,-0.064388,0.00977101,-0.469932,-6.88561,-0.360692,-0.609021,7.68679,-0.0328993,-0.502752,-2.54131,5.18987,2.48332,-0.0101573,0.295371,-1.62156,-0.0824744,-3.55716,-0.127619,-0.135425,0.0533447,0.686585,-0.0301303,-0.064388,0,0,0,0,0,0,0,0,0,-0.0934473,-0.00890935,-0.00481903,1.02629,-0.00201632,-0.000142138,0.0234607,0.0123637,-0.835715,-1.02609,-0.0127666,-0.0066559
797,0.000344161,0.180063,0.0882788,0.27494,0.0830083,0.0830083,0.0830083,0.0830083,0.0830083,0.0830083,0.0830083,0.0830083,0.0830083,0.895831,0.685292,-0.0169917,1.12802,0.180063,0.0882788,0.27494,-0.0241015,-0.0225878,0.0217209,0.0403584,-0.0564623,0.0825352,0.0830083,-0.353514,7.28916,0.303043,-2.52409,-0.91911,-1.34962,-1.26845,-6.55011,0.186319,-1.15328,0.650631,-1.80947,3.58909,0.0042022,2.80298,-0.0241015,-0.0225878,0.0217209,0.0403584,-0.0564623,0.0825352,0,0,0,0,0,0,0,0,0,-0.0166325,-0.001814,0.00236995,0.927487,0.00118975,0.000434601,0.00120747,-0.107092,-0.768714,-0.940766,0.113033,0.000507764
798,0.000344161,0.0586548,-0.00043416,0.00795268,0.015795,0.015795,0.015795,0.015795,0.015795,0.015795,0.015795,0.015795,0.015795,-0.423981,0.892199,-0.084205,0.991398,0.0586548,-0.00043416,0.00795268,0.00586236,-0.00493944,-0.0477209,-0.0599117,-0.00254822,-0.0219059,0.015795,-9.9824,-18.6735,0.510935,0.0101982,1.26659,0.311226,0.0570524,17.3483,0.0675084,-1.30744,0.0215127,-0.200333,1.29768,-0.00893049,0.135327,0.00586236,-0.00493944,-0.0477209,-0.0599117,-0.00254822,-0.0219059,0,0,0,0,0,0,0,0,0,-0.0101387,-0.0383445,0.00130931,0.108292,0.00173259,0.00375065,0.0115762,-0.02489,-0.0143328,-0.105657,0.0250796,0.011384
799,0.000344161,0.324041,-0.0260906,0.577285,0.0609789,0.0609789,0.0609789,0.0609789,0.0609789,0.0609789,0.0609789,0.0609789,0.0609789,0.939021,0.544429,0.0199926,1.08562,0.324041,-0.0260906,0.577285,0.0825509,-0.0864393,-0.0608597,0.0420491,-0.0260353,0.0581377,0.0609789,0.188735,-6.79844,-0.248512,4.10552,0.39748,-1.26665,0.670145,6.07692,-0.377612,1.20784,1.28967,-1.8863,-5.28726,0.0879299,0.638873,0.0825509,-0.0864393,-0.0608597,0.0420491,-0.0260353,0.0581377,0,0,0,0,0,0,0,0,0,0.0180461,0.00126206,-0.00256497,0.950162,-0.00260626,-0.000784542,-0.00177219,-0.0972886,-0.825546,-0.963437,0.109925,0.000635963
800,0.000344161,0.325427,0.0651335,1.05883,0.0143274,0.0143274,0.0143274,0.0143274,0.0143274,0.0143274,0.0143274,0.0143274,0.0143274,0.438516,-0.967667,-0.0856726,1.06584,0.325427,0.0651335,1.05883,0.127865,-0.127917,0.0359344,0.00566626,-0.0125828,0.0814061,0.0143274,-14.9113,20.8478,-0.497254,0.717885,-14.8411,-0.107129,-0.850048,-6.33211,-0.0119356,-0.820447,-0.0118923,0.697369,0.0374286,-0.0468991,-0.906156,0.127865,-0.127917,0.0359344,0.00566626,-0.0125828,0.0814061,0,0,0,0,0,0,0,0,0,-0.0623925,-0.0568919,0.000238774,0.722068,-0.0103402,-0.00649048,0.0169939,0.109768,-0.34737,-0.72278,-0.110013,0.0171977
801,0.000344161,-0.0100269,-0.0527626,0.196768,0.0764746,0.0764746,0.0764746,0.0764746,0.0764746,0.0764746,0.0764746,0.0764746,0.0764746,0.507818,-0.774746,-0.0235254,0.926641,-0.0100269,-0.0527626,0.196768,0.075504,0.00419804,-0.0276184,0.034018,-0.0140877,0.0567187,0.0764746,-3.65196,6.69515,-0.622042,0.596567,-2.64093,-0.869955,-1.528,-4.0442,-0.148041,-1.05356,0.0528552,0.0362924,0.50976,-0.0180055,1.29494,0.075504,0.00419804,-0.0276184,0.034018,-0.0140877,0.0567187,0,0,0,0,0,0,0,0,0,-0.0188596,-0.0136687,-0.00307305,0.778521,-0.00289133,-0.00310539,0.00364346,0.0816384,-0.417225,-0.787497,-0.0812508,0.00440714
802,0.000344161,-0.0987673,0.0378343,-0.0134833,0.0375495,0.0375495,0.0375495,0.0375495,0.0375495,0.0375495,0.0375495,0.0375495,0.0375495,-0.645323,-0.682787,-0.0624505,0.941562,-0.0987673,0.0378343,-0.0134833,0.0505052,-0.0267915,0.0642281,-0.0243227,-0.00726241,-0.0369114,0.0375495,-4.71881,-13.232,0.112032,2.00737,4.24848,-0.0601852,2.12669,9.08232,-0.731346,-1.27766,-0.0637169,-1.07831,-0.767542,-0.327755,-1.0349,0.0505052,-0.0267915,0.0642281,-0.0243227,-0.00726241,-0.0369114,0,0,0,0,0,0,0,0,0,-0.0026855,-0.0166623,0.000854518,0.0327103,-0.000414753,-2.1103e-06,0.00290085,0.000768928,-0.00146886,-0.0326699,-0.00147872,0.00485586
803,0.000344161,0.115534,-0.0102856,1.27468,0.0309668,0.0309668,0.0309668,0.0309668,0.0309668,0.0309668,0.0309668,0.0309668,0.0309668,0.921829,-0.0410182,0.0690332,0.92532,0.115534,-0.0102856,1.27468,0.0270997,-0.0728228,-0.00214386,0.281248,0.0101905,-0.0109922,0.0309668,0.250446,2.27698,0.291988,-0.260811,-6.89257,-0.120683,-3.48056,4.50006,-4.4199,-2.25951,-0.0962747,2.32628,2.53061,0.229712,-0.120411,0.0270997,-0.0728228,-0.00214386,0.281248,0.0101905,-0.0109922,0,0,0,0,0,0,0,0,0,0.0696664,0.00559049,0.00193212,1.0257,-0.000135915,0.000259534,-0.0164905,0.011961,-0.843134,-1.02693,-0.0128219,0.00529636
804,0.000344161,2.11278,-0.869408,3.55175,0.0175484,0.0175484,0.0175484,0.0175484,0.0175484,0.0175484,0.0175484,0.0175484,0.0175484,0.979747,0.156409,-0.0824516,0.995573,2.11278,-0.869408,3.55175,-0.0543634,0.027288,-0.0525742,0.511237,0.0700955,0.10989,0.0175484,-0.344233,23.4166,0.487306,-25.0727,2.20561,-0.381583,-19.0652,-27.735,4.37025,-4.89041,0.43043,2.07681,30.8325,-0.0350276,13.4366,-0.0543634,0.027288,-0.0525742,0.511237,0.0700955,0.10989,0,0,0,0,0,0,0,0,0,-0.0852683,-0.00725193,0.0106119,1.02628,0.00218232,-0.00546592,0.0191485,-0.0432461,-0.899471,-1.03063,0.0482514,-0.00488464
805,0.000344161,4.84317,-0.838802,4.14949,0.000141859,0.000141859,0.000141859,0.000141859,0.000141859,0.000141859,0.000141859,0.000141859,0.000141859,-0.0147685,0.89657,-0.0998581,0.902234,4.84317,-0.838802,4.14949,-0.710126,0.0125228,-0.0249977,-0.0743599,0.0310678,-0.118489,0.000141859,-19.921,-12.5682,1.2787,2.15644,-2.8364,-0.00234848,0.0314856,10.5614,0.000354141,0.186137,0.00417335,0.0435398,-1.50377,-0.00902604,-4.22451,-0.710126,0.0125228,-0.0249977,-0.0743599,0.0310678,-0.118489,0,0,0,0,0,0,0,0,0,-0.03772,-0.079118,0.00404156,0.365849,0.00462429,0.00887069,0.0236676,-0.0488117,-0.105836,-0.366122,0.0491641,0.0234001
806,0.000344161,-0.355191,-0.0356762,1.68043,0.0303585,0.0303585,0.0303585,0.0303585,0.0303585,0.0303585,0.0303585,0.0303585,0.0303585,0.969642,0.0728957,0.0263765,0.972735,-0.355191,-0.0356762,1.68043,0.0817833,-0.037272,-0.0209656,0.00524795,-0.125592,0.129326,0.0303585,-0.0084434,-1.21393,-0.087853,3.26671,-1.05914,-0.743605,-8.42353,2.62825,-1.38948,0.723601,0.738852,9.2251,-3.95463,-0.00572625,-2.482,0.0817833,-0.037272,-0.0209656,0.00524795,-0.125592,0.129326,0,0,0,0,0,0,0,0,0,0.0259389,0.00173665,-0.00215953,1.02556,-0.00126817,0.000908281,-0.00555121,-0.015955,-0.892141,-1.03321,0.0220876,0.00198795
807,0.000344161,-0.114431,0.280016,0.689286,0.0444017,0.0444017,0.0444017,0.0444017,0.0444017,0.0444017,0.0444017,0.0444017,0.0444017,0.918134,-0.470275,-0.0555983,1.03306,-0.114431,0.280016,0.689286,0.108372,-0.0660515,-0.0021286,-0.0356053,-0.00678635,0.0943647,0.0444017,-1.0251,17.2333,-1.19955,9.38046,-1.02902,-0.770451,-2.43223,-16.0899,1.53241,4.98459,-0.707227,-0.425972,-14.6451,-0.0827249,2.16892,0.108372,-0.0660515,-0.0021286,-0.0356053,-0.00678635,0.0943647,0,0,0,0,0,0,0,0,0,-0.0540192,-0.00526638,-0.00979464,0.963213,-0.00630663,-0.00286136,0.00680126,0.0953695,-0.811929,-0.970938,-0.10251,-0.000624546
808,0.000344161,-0.166072,-0.00262773,0.57123,0.0374091,0.0374091,0.0374091,0.0374091,0.0374091,0.0374091,0.0374091,0.0374091,0.0374091,0.766426,-0.93235,-0.0625909,1.20855,-0.166072,-0.00262773,0.57123,0.165113,-0.020382,-0.0223923,0.00389588,0.00763321,0.110143,0.0374091,-4.93653,21.3806,-0.401687,0.993174,-5.23578,-0.728275,-0.739106,-15.9787,0.0112398,0.0865424,-0.060874,-0.225887,-1.07709,-0.072993,0.393763,0.165113,-0.020382,-0.0223923,0.00389588,0.00763321,0.110143,0,0,0,0,0,0,0,0,0,-0.0557811,-0.0184119,-0.00182136,0.884844,-0.00866842,-0.00239933,0.00552083,0.121095,-0.619453,-0.892351,-0.121627,0.0056309
809,0.000344161,-0.0133735,0.0451795,0.116805,0.0998615,0.0998615,0.0998615,0.0998615,0.0998615,0.0998615,0.0998615,0.0998615,0.0998615,0.465039,-0.883145,0.000138513,0.998101,-0.0133735,0.0451795,0.116805,0.0648962,0.000334516,-0.00452423,0.0287913,-0.00723553,0.0781973,0.0998615,-0.00843656,0.115305,-0.0239744,-0.057222,-0.130416,-0.793666,-2.02415,0.0284851,0.00318292,-0.042226,0.0964878,0.655566,0.0542685,0.0137088,1.25178,0.0648962,0.000334516,-0.00452423,0.0287913,-0.00723553,0.0781973,0,0,0,0,0,0,0,0,0,-0.000473257,7.42136e-05,0.000311247,0.740785,-0.000930274,-0.000547646,-4.82133e-05,0.0959126,-0.374795,-0.748766,-0.09502,0.000251446
810,0.000344161,-0.0288601,0.0798874,-0.191901,0.0159095,0.0159095,0.0159095,0.0159095,0.0159095,0.0159095,0.0159095,0.0159095,0.0159095,-0.621184,-0.878856,-0.0840905,1.0795,-0.0288601,0.0798874,-0.191901,0.0958028,-0.108677,-0.173251,-0.137022,0.00470304,-0.034822,0.0159095,-6.9868,-10.1593,-0.66023,1.64285,0.180121,0.238245,3.53436,10.008,-0.268926,-3.20457,0.0237344,-0.0435653,1.48184,-0.0439233,-3.29889,0.0958028,-0.108677,-0.173251,-0.137022,0.00470304,-0.034822,0,0,0,0,0,0,0,0,0,-0.00381438,-0.0259446,-0.0019557,0.0333051,-0.00149735,-0.00573337,0.00648067,0.0125141,-0.00125272,-0.0326552,-0.0122298,0.00811668
811,0.000344161,-0.00753236,-0.0438409,0.0537888,0.0762605,0.0762605,0.0762605,0.0762605,0.0762605,0.0762605,0.0762605,0.0762605,0.0762605,-0.281276,-0.841637,-0.0237395,0.887712,-0.00753236,-0.0438409,0.0537888,0.0399129,0.00213243,0.0228271,0.0109678,-0.00214672,0.00648499,0.0762605,-3.57281,-5.59009,-0.104163,-0.291836,1.61432,0.826069,-0.0111638,3.98331,0.0877396,0.720325,-0.108292,-0.262898,-0.384648,-0.00187482,0.220273,0.0399129,0.00213243,0.0228271,0.0109678,-0.00214672,0.00648499,0,0,0,0,0,0,0,0,0,-0.00505932,-0.0137073,0.000313932,0.18724,-0.00102947,-0.00133424,0.00445074,0.022564,-0.0347603,-0.178751,-0.0236684,0.00398026
812,0.000344161,0.0329313,0.132819,1.45266,0.00768038,0.00768038,0.00768038,0.00768038,0.00768038,0.00768038,0.00768038,0.00768038,0.00768038,0.191721,-0.798467,0.0923196,0.826335,0.0329313,0.132819,1.45266,-0.218315,-0.176377,0.0301819,0.111069,0.0135326,0.0465307,0.00768038,20.6777,-7.55329,2.02582,4.31004,2.04101,-0.0513432,-0.278836,5.47935,0.822216,5.02598,0.0731315,0.193537,-9.46884,0.0469965,-1.36736,-0.218315,-0.176377,0.0301819,0.111069,0.0135326,0.0465307,0,0,0,0,0,0,0,0,0,0.0498567,0.0775053,0.00885207,0.547743,0.00386619,0.00964239,-0.0201254,0.0481158,-0.203439,-0.547954,-0.0472492,-0.0243242
813,0.000344161,0.0121702,0.0105419,0.14409,0.068199,0.068199,0.068199,0.068199,0.068199,0.068199,0.068199,0.068199,0.068199,0.145887,-0.785082,0.031801,0.799155,0.0121702,0.0105419,0.14409,0.0988777,-0.0268032,-0.0262489,0.00187135,-0.013545,0.0465736,0.068199,7.13741,-0.689151,0.537738,2.63882,-0.787825,-0.26842,-0.795911,1.46481,0.356322,0.799792,0.473507,-0.203427,-3.44915,0.0363384,0.855249,0.0988777,-0.0268032,-0.0262489,0.00187135,-0.013545,0.0465736,0,0,0,0,0,0,0,0,0,0.0155998,0.0273229,0.00220914,0.50745,0.000633782,0.00290021,-0.00706756,0.0428205,-0.178758,-0.510397,-0.0382209,-0.00844397
814,0.000344161,-0.156505,-0.288089,0.609148,0.0644374,0.0644374,0.0644374,0.0644374,0.0644374,0.0644374,0.0644374,0.0644374,0.0644374,0.934068,0.135254,-0.0355626,0.944479,-0.156505,-0.288089,0.609148,0.138062,-0.080675,0.0234604,-0.155308,0.0198896,0.123514,0.0644374,-0.15423,3.45417,0.405435,-4.54946,2.61122,-0.479438,-8.31991,-5.90889,2.42768,-2.6837,0.573234,4.09536,7.52124,-0.0355681,3.6154,0.138062,-0.080675,0.0234604,-0.155308,0.0198896,0.123514,0,0,0,0,0,0,0,0,0,-0.0373068,-0.00278563,0.00410125,1.01813,0.000292128,-0.000853644,0.00865708,-0.031775,-0.853681,-1.02269,0.0377063,-0.00226506
815,0.000344161,0.0910368,-0.0725627,0.057897,0.0346132,0.0346132,0.0346132,0.0346132,0.0346132,0.0346132,0.0346132,0.0346132,0.0346132,-0.35968,-0.5999,-0.0653868,0.702514,0.0910368,-0.0725627,0.057897,0.0318879,-0.0221127,0.023386,-0.00129187,-0.039387,-0.0252626,0.0346132,-6.47556,-3.11314,1.85587,7.3325,11.5252,-0.328659,-7.44195,-8.5031,-0.0806432,-12.3045,0.205587,7.2308,5.04457,-0.0174309,0.153255,0.0318879,-0.0221127,0.023386,-0.00129187,-0.039387,-0.0252626,0,0,0,0,0,0,0,0,0,-0.00865139,-0.0246396,0.0162543,0.126052,0.000710225,0.00208327,0.00716914,-0.0193457,-0.0229848,-0.129105,0.0210077,0.00736535
816,0.000344161,0.200373,0.188404,3.52852,0.0111397,0.0111397,0.0111397,0.0111397,0.0111397,0.0111397,0.0111397,0.0111397,0.0111397,0.899245,-0.487133,-0.0888603,1.02657,0.200373,0.188404,3.52852,0.189513,-0.423474,-0.0109711,0.0443268,0.0842628,-0.0252071,0.0111397,-2.46081,18.7312,-1.89294,8.1585,-1.90007,-0.178784,-0.180004,-17.0315,1.8813,6.65682,-0.153736,-0.101035,-15.0037,-0.0807728,-3.24748,0.189513,-0.423474,-0.0109711,0.0443268,0.0842628,-0.0252071,0,0,0,0,0,0,0,0,0,-0.0856974,-0.0108353,-0.0148775,0.962919,-0.00960579,-0.00828659,0.0101492,0.100474,-0.791914,-0.964816,-0.101169,-8.76421e-06
817,0.000344161,0.0635974,-0.0381579,0.232524,0.0927571,0.0927571,0.0927571,0.0927571,0.0927571,0.0927571,0.0927571,0.0927571,0.0927571,0.807533,-0.761378,-0.00724294,1.10989,0.0635974,-0.0381579,0.232524,0.0302106,-0.00206748,0.0289917,0.0563893,0.0372677,0.102795,0.0927571,-0.388106,3.24588,-0.167607,0.351731,-0.662657,-1.32767,-1.49751,-2.64682,0.00402328,0.172903,-0.298423,-1.27237,-0.486476,0.00822123,2.53735,0.0302106,-0.00206748,0.0289917,0.0563893,0.0372677,0.102795,0,0,0,0,0,0,0,0,0,-0.00709184,-0.00157432,-0.000667754,0.902499,-0.00191874,-0.00102899,0.000517216,0.109027,-0.676281,-0.915486,-0.111638,0.000770235
818,0.000344161,0.069313,0.0788784,1.4057,0.019993,0.019993,0.019993,0.019993,0.019993,0.019993,0.019993,0.019993,0.019993,0.784179,-0.618339,0.080007,1.00184,0.069313,0.0788784,1.4057,0.0777588,-0.205493,-0.0548782,0.0541002,0.0279417,0.0701575,0.019993,4.9855,-22.2596,2.22305,-3.8921,4.14397,-0.403036,-0.419223,18.0463,-0.412497,-2.69488,-0.169282,-0.271865,6.50811,0.139798,-0.714615,0.0777588,-0.205493,-0.0548782,0.0541002,0.0279417,0.0701575,0,0,0,0,0,0,0,0,0,0.0727071,0.0196454,0.0112746,0.919596,0.00647995,0.00890101,-0.00746293,0.0963593,-0.670009,-0.924175,-0.0977727,-0.00462117
819,0.000344161,0.00208211,-0.0055066,0.195536,0.0978695,0.0978695,0.0978695,0.0978695,0.0978695,0.0978695,0.0978695,0.0978695,0.0978695,0.673398,0.896305,-0.00213052,1.12109,0.00208211,-0.0055066,0.195536,0.0127573,-0.0360404,0.0269928,0.0395885,-0.014679,0.0657045,0.0978695,-0.228544,1.10867,0.0408899,-0.0086281,-0.416577,-1.12081,-1.62172,-0.694178,-0.0029136,-0.0399993,0.0685646,-0.2978,0.054134,0.0116566,1.72398,0.0127573,-0.0360404,0.0269928,0.0395885,-0.014679,0.0657045,0,0,0,0,0,0,0,0,0,-0.00263577,-0.000961528,0.000277177,0.851068,-0.000298599,-0.000228682,0.000300779,-0.110017,-0.544056,-0.862006,0.110555,0.00050421
820,0.000344161,0.0353975,0.098772,0.75166,0.00564038,0.00564038,0.00564038,0.00564038,0.00564038,0.00564038,0.00564038,0.00564038,0.00564038,-0.130888,-0.99436,-0.0139396,1.00303,0.0353975,0.098772,0.75166,0.0257644,0.00714175,0.368927,0.00287494,-0.0101275,0.0377084,0.00564038,-2.56282,-2.5443,-0.00960523,-0.0105017,-1.96205,1.6899,-0.418512,4.47095,-0.00110148,0.0459236,-0.0152582,-0.672047,-0.134194,-0.00341396,0.338899,0.0257644,0.00714175,0.368927,0.00287494,-0.0101275,0.0377084,0,0,0,0,0,0,0,0,0,-0.00465745,-0.00979954,0.00180998,0.287362,-0.00144391,-0.00183461,0.00289463,0.0629623,-0.0616455,-0.266774,-0.0632161,0.00305723
821,0.000344161,-0.0462911,-0.0259759,1.35548,0.0245706,0.0245706,0.0245706,0.0245706,0.0245706,0.0245706,0.0245706,0.0245706,0.0245706,0.837603,0.131144,-0.00810828,0.847847,-0.0462911,-0.0259759,1.35548,0.0724576,-0.0719131,0.0644226,-0.0105447,0.0366564,0.145707,0.0245706,0.00140445,-0.929335,-0.0075551,4.24763,1.0885,0.0437183,-3.82023,-0.112877,0.778108,-2.48219,-0.781562,-0.763194,-1.73947,0.0112988,3.22794,0.0724576,-0.0719131,0.0644226,-0.0105447,0.0366564,0.145707,0,0,0,0,0,0,0,0,0,-0.00930138,-0.000782725,0.000857598,1.01081,-0.00051106,-0.00165228,0.00268578,-0.0343583,-0.755848,-1.00972,0.0269093,-0.000367007
822,0.000344161,-0.324466,-0.305927,3.24016,0.00962032,0.00962032,0.00962032,0.00962032,0.00962032,0.00962032,0.00962032,0.00962032,0.00962032,0.830773,0.0737886,0.0271362,0.834485,-0.324466,-0.305927,3.24016,0.073474,0.0381102,0.090889,-0.123518,0.0109516,0.157084,0.00962032,0.00520043,-0.168268,0.0899445,-3.79061,0.50667,-0.0168699,0.582789,-0.0139356,-1.43518,1.4742,-0.671182,-7.53466,2.62234,0.116972,3.71171,0.073474,0.0381102,0.090889,-0.123518,0.0109516,0.157084,0,0,0,0,0,0,0,0,0,0.0264713,0.00178488,-0.0021801,1.01558,-0.00140763,0.00346065,-0.006402,-0.0204102,-0.750058,-1.01484,0.0138079,0.00276178
823,0.000344161,-2.1145,-1.71089,22.0164,0.00132689,0.00132689,0.00132689,0.00132689,0.00132689,0.00132689,0.00132689,0.00132689,0.00132689,0.865149,-0.858291,0.0986731,1.22265,-2.1145,-1.71089,22.0164,0.269034,0.246909,-0.129463,0.424794,0.0972366,0.200879,0.00132689,4.04919,-26.8724,0.708762,-4.41698,4.20143,-0.0273564,0.0601509,24.7855,-0.407455,-1.3143,-0.010115,-0.0158836,7.44217,0.0775676,-22.0607,0.269034,0.246909,-0.129463,0.424794,0.0972366,0.200879,0,0,0,0,0,0,0,0,0,0.08922,0.0162673,0.00568361,0.916405,0.0106603,0.0038731,-0.00523716,0.121919,-0.718018,-0.917973,-0.121048,-0.00393163
824,0.000344161,-0.00949597,-0.0424345,0.0637687,0.0883785,0.0883785,0.0883785,0.0883785,0.0883785,0.0883785,0.0883785,0.0883785,0.0883785,-0.568385,-0.877288,-0.0116215,1.04539,-0.00949597,-0.0424345,0.0637687,0.0245639,-0.00657735,-0.00751114,0.00763959,0.0239972,0.0114057,0.0883785,-1.08817,-2.41474,-0.0733913,0.00822374,0.371716,0.860983,-0.00103599,2.05252,-0.0283161,-0.301205,0.0493451,-0.375118,0.335416,-0.0129265,0.312385,0.0245639,-0.00657735,-0.00751114,0.00763959,0.0239972,0.0114057,0,0,0,0,0,0,0,0,0,-0.00127047,-0.00406517,-5.26756e-06,0.0567973,-0.00058865,-0.000794419,0.00114946,0.0162014,-0.00305227,-0.0482626,-0.015468,0.00124524
825,0.000344161,-0.397316,0.0954361,-0.452879,0.0024287,0.0024287,0.0024287,0.0024287,0.0024287,0.0024287,0.0024287,0.0024287,0.0024287,-0.592927,0.0723141,-0.0975713,0.605237,-0.397316,0.0954361,-0.452879,-0.0288354,0.0449191,0.101026,0.441684,0.0622903,-0.0551197,0.0024287,-0.0926947,4.89369,-0.231092,3.71494,-3.62213,0.00343178,-0.0205938,-0.874245,-1.29778,-1.12457,-0.00493979,-0.0813119,-2.68581,0.00515845,0.554785,-0.0288354,0.0449191,0.101026,0.441684,0.0622903,-0.0551197,0,0,0,0,0,0,0,0,0,-0.000821605,0.000578028,-0.00190169,0.00412121,-0.000562662,3.99616e-05,-0.00309481,0.0030988,3.7767e-05,-0.00307663,-0.00252529,0.000935873
826,0.000344161,0.00797892,0.0210981,0.257685,0.0932559,0.0932559,0.0932559,0.0932559,0.0932559,0.0932559,0.0932559,0.0932559,0.0932559,0.862592,0.823561,0.00674408,1.19263,0.00797892,0.0210981,0.257685,0.0059692,-0.047255,0.0636215,0.0594357,-0.0446482,0.065101,0.0932559,0.346468,-2.35943,-0.0533949,0.0681936,0.203614,-1.42984,-1.415,2.14784,-0.0171277,0.0664653,0.323046,-1.60983,-0.155757,0.0572234,2.76715,0.0059692,-0.047255,0.0636215,0.0594357,-0.0446482,0.065101,0,0,0,0,0,0,0,0,0,0.00529976,0.00116557,-0.000195652,0.909647,-0.00137258,-0.000810847,-0.000385078,-0.113606,-0.721886,-0.923309,0.11639,1.50036e-05
827,0.000344161,0.0423756,-0.0488708,0.276822,0.0496596,0.0496596,0.0496596,0.0496596,0.0496596,0.0496596,0.0496596,0.0496596,0.0496596,0.425684,0.841788,-0.0503404,0.944641,0.0423756,-0.0488708,0.276822,0.0143937,-0.0301139,0.00528717,0.00501502,0.00826454,0.00758958,0.0496596,-8.91617,12.3251,1.01668,-0.65059,-4.80495,-0.592337,-1.47235,-7.56257,-0.23031,2.38287,-0.117424,0.398717,-1.68341,-0.0382345,0.796811,0.0143937,-0.0301139,0.00528717,0.00501502,0.00826454,0.00758958,0,0,0,0,0,0,0,0,0,-0.0370871,-0.0339423,0.00527972,0.722356,0.00366826,0.00458596,0.00944012,-0.0816671,-0.35129,-0.728226,0.0805755,0.0104134
828,0.000344161,-0.417473,0.0100336,0.410199,0.021352,0.021352,0.021352,0.021352,0.021352,0.021352,0.021352,0.021352,0.021352,0.0497924,-0.721963,0.078648,0.727939,-0.417473,0.0100336,0.410199,0.0318046,-0.00930423,-0.0882378,0.0477428,-0.0394551,0.0571818,0.021352,18.4286,18.5166,-0.653407,12.2842,-44.4363,-0.635753,0.845765,26.3371,0.431074,-5.62888,0.179951,-0.801491,-6.66537,0.0477013,-0.454473,0.0318046,-0.00930423,-0.0882378,0.0477428,-0.0394551,0.0571818,0,0,0,0,0,0,0,0,0,0.0326503,0.0703281,-0.0137509,0.427222,0.000661058,0.00712377,-0.0195799,0.0153021,-0.135717,-0.434462,-0.0138971,-0.0214496
829,0.000344161,-0.0584995,0.0119786,0.0605794,0.0622753,0.0622753,0.0622753,0.0622753,0.0622753,0.0622753,0.0622753,0.0622753,0.0622753,-0.336169,0.937725,0.000416482,0.996161,-0.0584995,0.0119786,0.0605794,0.00461669,-0.0122776,-0.0315361,0.00921704,0.00840473,0.00368606,0.0622753,0.0377978,0.161458,-0.00649664,0.00232474,-0.0229954,1.35651,0.571136,-0.0799626,-0.000978766,0.0161503,0.0648611,-0.827531,-0.0304537,0.00454671,0.195815,0.00461669,-0.0122776,-0.0315361,0.00921704,0.00840473,0.00368606,0,0,0,0,0,0,0,0,0,-0.000586066,0.000144128,-0.000107285,0.158576,-0.000356847,-8.04573e-05,-2.67535e-05,-0.0357783,-0.0233886,-0.145326,0.036511,-2.6781e-05
830,0.000344161,-0.0653458,-0.136157,1.48912,0.0150127,0.0150127,0.0150127,0.0150127,0.0150127,0.0150127,0.0150127,0.0150127,0.0150127,0.895963,-0.88523,0.0849873,1.26238,-0.0653458,-0.136157,1.48912,0.0035367,0.00582363,-0.0942993,0.118217,0.0601902,0.154508,0.0150127,2.80687,-26.8093,0.567083,-3.30859,4.40974,-0.336341,0.32125,22.4649,-0.1477,-1.46831,-0.0894469,-0.391717,4.91305,0.143671,-1.41865,0.0035367,0.00582363,-0.0942993,0.118217,0.0601902,0.154508,0,0,0,0,0,0,0,0,0,0.076948,0.0104992,0.00409264,0.917568,0.00918604,0.00163643,-0.00370022,0.123296,-0.74303,-0.921875,-0.123588,-0.00206191
831,0.000344161,0.0592212,-0.0262505,0.185802,0.0885637,0.0885637,0.0885637,0.0885637,0.0885637,0.0885637,0.0885637,0.0885637,0.0885637,0.355181,0.759349,-0.0114363,0.838389,0.0592212,-0.0262505,0.185802,-0.0407082,-0.0232429,0.0470123,0.0145126,-0.0137577,0.01437,0.0885637,-2.24856,2.85845,0.357763,0.0461491,-2.04526,-0.53337,-2.38712,-0.872415,-0.146177,0.933603,-0.338318,0.928725,-0.953502,0.00184002,1.27259,-0.0407082,-0.0232429,0.0470123,0.0145126,-0.0137577,0.01437,0,0,0,0,0,0,0,0,0,-0.00857881,-0.00867167,0.00236669,0.68305,0.000240063,0.000978507,0.00211636,-0.0594609,-0.306721,-0.687914,0.0559401,0.00285573
832,0.000344161,-0.882627,0.461256,1.36913,0.00534085,0.00534085,0.00534085,0.00534085,0.00534085,0.00534085,0.00534085,0.00534085,0.00534085,-0.0925324,0.670959,0.046963,0.678935,-0.882627,0.461256,1.36913,0.338088,0.510919,-0.542904,-0.185513,-0.140124,-0.152576,0.00534085,7.7869,-32.1385,2.31327,-8.44315,13.68,-2.26472,11.1196,19.3412,0.736663,1.52475,-0.778521,-12.6207,6.45714,0.0106991,0.13199,0.338088,0.510919,-0.542904,-0.185513,-0.140124,-0.152576,0,0,0,0,0,0,0,0,0,0.0126944,0.0307777,0.0303619,0.288329,-0.000149289,-0.00212001,-0.00709147,0.00615942,-0.0823248,-0.316405,-0.0153459,-0.0105566
833,0.000344161,-0.0810146,0.0822082,0.282586,0.0383364,0.0383364,0.0383364,0.0383364,0.0383364,0.0383364,0.0383364,0.0383364,0.0383364,0.0583964,0.754465,0.0616636,0.75923,-0.0810146,0.0822082,0.282586,0.00309277,0.0110297,0.0853844,-0.0171545,0.019665,-0.00373793,0.0383364,14.01,9.10984,-0.282808,-6.87318,-16.7186,-0.412644,-0.0965797,7.68977,0.458076,0.740481,-0.300236,-0.294036,6.05049,0.0509696,0.10803,0.00309277,0.0110297,0.0853844,-0.0171545,0.019665,-0.00373793,0,0,0,0,0,0,0,0,0,0.0260817,0.0533331,0.00366148,0.435802,-0.00186165,-0.00637927,-0.0145276,-0.0230252,-0.139341,-0.439075,0.0202195,-0.016496
834,0.000344161,0.0287127,0.0260789,-0.0755681,0.015751,0.015751,0.015751,0.015751,0.015751,0.015751,0.015751,0.015751,0.015751,-0.58683,0.309018,0.084249,0.668551,0.0287127,0.0260789,-0.0755681,0.0398528,0.00962228,0.037039,-0.0113629,0.0559317,0.000914574,0.015751,1.93328,-11.8021,1.47735,1.87169,5.2968,-0.0765741,-0.283665,6.47659,1.17038,-2.40715,-0.00878493,0.641062,0.509382,0.00174207,-0.281829,0.0398528,0.00962228,0.037039,-0.0113629,0.0559317,0.000914574,0,0,0,0,0,0,0,0,0,0.00100411,0.00624859,0.00971297,0.02009,0.000580838,0.00515677,0.00217801,0.0112546,-0.0016828,-0.0204854,-0.0107831,-0.00360381
835,0.000344161,0.0729656,-7.05719e-05,0.0315635,0.0519368,0.0519368,0.0519368,0.0519368,0.0519368,0.0519368,0.0519368,0.0519368,0.0519368,-0.626577,0.948063,0.0441189,1.13726,0.0729656,-7.05719e-05,0.0315635,-0.0046767,-0.0163997,0.0430918,0.0113309,-0.0312142,0.00119865,0.0519368,3.19906,12.1661,-0.237375,0.223849,3.19047,1.17617,-2.73989,-15.4296,0.0323516,-1.05736,-0.0882367,1.14481,0.833582,0.0631936,1.56351,-0.0046767,-0.0163997,0.0430918,0.0113309,-0.0312142,0.00119865,0,0,0,0,0,0,0,0,0,0.00111228,0.0121614,0.00117519,0.0368267,-0.00111991,-0.00371294,-0.00359212,-0.0183156,-2.13608e-05,-0.0246341,0.0171211,-0.00348857
836,0.000344161,0.0262406,-0.0393627,0.0747094,0.0726856,0.0726856,0.0726856,0.0726856,0.0726856,0.0726856,0.0726856,0.0726856,0.0726856,-0.188161,0.827746,0.0273144,0.849302,0.0262406,-0.0393627,0.0747094,0.00145423,-0.00470069,0.0585098,0.00503945,0.00884604,0.00148988,0.0726856,4.69233,6.35206,-0.105024,-0.725658,-2.42176,0.697173,-1.09796,-3.95655,-0.0910768,0.553332,0.00939402,0.672069,0.211688,0.00990281,0.351177,0.00145423,-0.00470069,0.0585098,0.00503945,0.00884604,0.00148988,0,0,0,0,0,0,0,0,0,0.00609315,0.0181391,0.000298095,0.246708,-0.000969911,-0.00139534,-0.00575996,-0.0225048,-0.0550256,-0.239151,0.0226872,-0.00527281
837,0.000344161,-0.0472732,-0.0121985,0.055212,0.0988645,0.0988645,0.0988645,0.0988645,0.0988645,0.0988645,0.0988645,0.0988645,0.0988645,-0.278568,0.766273,-0.00113548,0.815338,-0.0472732,-0.0121985,0.055212,0.0117645,-0.0142622,0.0340881,0.0128339,0.0114127,0.00874262,0.0988645,-0.193991,-0.2613,-0.00620566,-0.0390006,0.247723,0.566649,-1.04308,0.0608503,0.00240149,0.0344676,0.103534,0.735628,0.0167315,0.00188353,0.252241,0.0117645,-0.0142622,0.0340881,0.0128339,0.0114127,0.00874262,0,0,0,0,0,0,0,0,0,-0.000854906,-0.00073071,-0.000144644,0.188556,-0.000340888,-6.00345e-05,0.000256598,-0.00729704,-0.0368783,-0.182548,0.00844651,0.000233551
838,0.000344161,0.0992055,-0.0955977,0.388766,0.0275964,0.0275964,0.0275964,0.0275964,0.0275964,0.0275964,0.0275964,0.0275964,0.0275964,0.153778,-0.783346,-0.0724036,0.801574,0.0992055,-0.0955977,0.388766,0.195105,0.0757707,0.0144463,0.0260139,0.00229836,0.0403895,0.0275964,-16.5396,2.31001,-1.39232,-5.5973,1.98114,-0.163448,-0.395073,-4.39035,-0.730961,-2.1956,0.242637,0.00484693,7.8885,-0.0492901,0.00146017,0.195105,0.0757707,0.0144463,0.0260139,0.00229836,0.0403895,0,0,0,0,0,0,0,0,0,-0.03781,-0.0620399,-0.00433176,0.515902,-0.00386251,-0.00883377,0.016158,0.041697,-0.18346,-0.517392,-0.0392477,0.0196382
839,0.000344161,0.137574,-0.060447,0.157608,0.0755532,0.0755532,0.0755532,0.0755532,0.0755532,0.0755532,0.0755532,0.0755532,0.0755532,0.211686,0.770693,-0.0236668,0.799587,0.137574,-0.060447,0.157608,-0.0911649,-0.0238678,0.0360603,0.0152086,0.00825548,0.00853634,0.0755532,-5.29896,3.08544,0.541549,2.04145,-1.60522,-0.355608,-0.285208,-1.61779,-0.302374,0.41331,-0.4643,-0.971072,-2.39431,-0.0184264,1.09867,-0.0911649,-0.0238678,0.0360603,0.0152086,0.00825548,0.00853634,0,0,0,0,0,0,0,0,0,-0.0141403,-0.0203885,0.00272322,0.566988,0.000674514,0.0024536,0.00512631,-0.0450643,-0.215802,-0.570183,0.0405038,0.00651269
840,0.000344161,-0.178152,-0.089857,1.08871,0.0172354,0.0172354,0.0172354,0.0172354,0.0172354,0.0172354,0.0172354,0.0172354,0.0172354,0.685567,-0.846921,0.0827646,1.09276,-0.178152,-0.089857,1.08871,0.0749913,-0.12654,0.0287933,0.0861855,-0.0109148,0.0461178,0.0172354,8.43848,-26.5394,1.29311,-1.95918,6.65622,-0.381592,-0.339279,20.0614,0.0374861,0.66189,-0.0317454,-0.185656,1.38715,0.10654,-0.563775,0.0749913,-0.12654,0.0287933,0.0861855,-0.0109148,0.0461178,0,0,0,0,0,0,0,0,0,0.0705488,0.0324253,0.00624237,0.863913,0.00787259,0.0054233,-0.00952372,0.108282,-0.558266,-0.867441,-0.108708,-0.00937879
841,0.000344161,-1.42929,-0.901434,19.8501,0.000662425,0.000662425,0.000662425,0.000662425,0.000662425,0.000662425,0.000662425,0.000662425,0.000662425,0.665893,0.445379,0.0418615,0.802202,-1.42929,-0.901434,19.8501,-0.0308082,-0.479789,0.76152,0.672772,-0.961504,-0.009583,0.000662425,0.678786,117.459,-0.798136,-127.436,-111.156,0.555276,148.379,-4.87439,0.946704,122.323,-0.759732,-170.38,6.01436,0.0847183,2.15111,-0.0308082,-0.479789,0.76152,0.672772,-0.961504,-0.009583,0,0,0,0,0,0,0,0,0,0.0380165,0.0005369,-0.0168493,0.930163,-0.00371098,0.00407006,0.00539439,-0.0736449,-0.575683,-0.916995,0.0564326,-0.00232731
842,0.000344161,-0.131567,0.00314438,0.0694116,0.0356461,0.0356461,0.0356461,0.0356461,0.0356461,0.0356461,0.0356461,0.0356461,0.0356461,-0.484846,-0.79109,0.0643539,0.930075,-0.131567,0.00314438,0.0694116,-0.00983846,-0.0187937,0.0253029,0.0394969,0.0278256,0.00590158,0.0356461,6.62024,11.7945,0.113571,-1.31788,-4.82667,0.356575,0.571007,-6.83626,0.0274763,-0.108861,-0.0707533,-0.669935,1.4236,0.00432788,0.0295165,-0.00983846,-0.0187937,0.0253029,0.0394969,0.0278256,0.00590158,0,0,0,0,0,0,0,0,0,0.00505173,0.0253356,0.000197552,0.0865171,0.000246396,0.000750226,-0.0073816,0.0107916,-0.00993405,-0.0826983,-0.0112208,-0.00766532
843,0.000344161,-0.0246785,-0.00402045,0.331193,0.0797468,0.0797468,0.0797468,0.0797468,0.0797468,0.0797468,0.0797468,0.0797468,0.0797468,0.661045,0.672195,0.0202532,0.942994,-0.0246785,-0.00402045,0.331193,0.0287434,-0.0416144,0.0317154,0.0559918,0.0116959,0.064801,0.0797468,1.98629,-4.99396,-0.512823,0.91586,1.39061,-0.93615,-2.17871,3.62802,0.0349809,-0.243986,0.160261,0.145723,-0.667853,0.0548175,1.70179,0.0287434,-0.0416144,0.0317154,0.0559918,0.0116959,0.064801,0,0,0,0,0,0,0,0,0,0.0167293,0.00750715,-0.00293591,0.869582,-0.00221535,-0.00260847,-0.00211317,-0.0826325,-0.555179,-0.878626,0.0843521,-0.00196994
844,0.000344161,2.34677,-1.38667,4.40499,0.00275127,0.00275127,0.00275127,0.00275127,0.00275127,0.00275127,0.00275127,0.00275127,0.00275127,0.837043,0.0960389,-0.0972487,0.848128,2.34677,-1.38667,4.40499,-0.277514,0.0496789,-0.198875,1.59104,-0.134838,-0.196026,0.00275127,-0.0320414,-4.97313,-0.0738894,18.1974,2.74211,-0.0265406,0.463957,-0.115746,4.56567,-7.43094,-0.0247543,-0.0486649,-9.3798,-0.0388464,-4.82028,-0.277514,0.0496789,-0.198875,1.59104,-0.134838,-0.196026,0,0,0,0,0,0,0,0,0,-0.0997289,-0.00802349,0.00851259,1.01281,0.00150768,-0.00875469,0.0243078,-0.0193858,-0.755701,-1.01507,0.0177899,-0.00765007
845,0.000344161,-0.0357934,0.015677,0.0463302,0.0994667,0.0994667,0.0994667,0.0994667,0.0994667,0.0994667,0.0994667,0.0994667,0.0994667,-0.263439,0.864211,0.000533282,0.903471,-0.0357934,0.015677,0.0463302,0.0166204,-0.0156378,0.0388165,0.00399385,0.00341463,0.00650487,0.0994667,0.0485119,0.173288,-0.00151366,-0.000752681,-0.0777436,0.94714,-0.0301838,-0.0597507,-0.00226594,0.0322671,0.0972003,-0.266957,-0.0471915,0.00196828,0.25081,0.0166204,-0.0156378,0.0388165,0.00399385,0.00341463,0.00650487,0,0,0,0,0,0,0,0,0,-0.000541843,0.000238738,-8.70863e-05,0.199625,-0.000361847,-8.44278e-05,-7.82836e-05,-0.0265131,-0.0379309,-0.189766,0.0275192,-4.45574e-05
846,0.000344161,-0.151659,-0.0668631,0.176343,0.0308967,0.0308967,0.0308967,0.0308967,0.0308967,0.0308967,0.0308967,0.0308967,0.0308967,-0.159216,-0.673373,0.0469356,0.69353,-0.151659,-0.0668631,0.176343,0.136858,-0.0228525,0.100449,0.0876013,-0.0187382,0.0182574,0.0308967,7.37171,11.3135,-1.77826,-9.45272,-29.8768,-1.63201,-14.4492,18.7149,0.541787,17.9055,0.768454,14.0003,-8.38594,0.0392873,0.27252,0.136858,-0.0228525,0.100449,0.0876013,-0.0187382,0.0182574,0,0,0,0,0,0,0,0,0,0.0108584,0.0280865,-0.0197729,0.245973,-0.000841895,0.00176183,-0.00630941,-0.00762235,-0.0626617,-0.261289,0.0151195,-0.00916862
847,0.000344161,0.0774732,-0.0332632,1.94798,0.0176631,0.0176631,0.0176631,0.0176631,0.0176631,0.0176631,0.0176631,0.0176631,0.0176631,0.689373,0.482638,-0.0823369,0.845549,0.0774732,-0.0332632,1.94798,-0.0508339,-0.0667497,0.0458298,0.121457,0.000406265,0.0690091,0.0176631,-4.3141,-9.04157,2.7634,-6.8573,3.4436,0.0820918,-5.28862,5.5205,-1.09299,19.0936,-0.209303,4.9369,-12.203,-0.0794785,-1.59626,-0.0508339,-0.0667497,0.0458298,0.121457,0.000406265,0.0690091,0,0,0,0,0,0,0,0,0,-0.0767586,-0.0156551,0.0239049,0.918813,0.00527934,0.00306165,0.00131188,-0.0672156,-0.595155,-0.917534,0.0651267,0.00611719
848,0.000344161,-0.0148314,0.0302337,0.670858,0.0632037,0.0632037,0.0632037,0.0632037,0.0632037,0.0632037,0.0632037,0.0632037,0.0632037,0.885001,0.0698503,0.0200903,0.88798,-0.0148314,0.0302337,0.670858,0.0653928,-0.0185337,-0.00938416,-0.0488919,0.0169162,0.106312,0.0632037,0.0422192,0.796452,-0.110186,-1.37151,-1.39848,-0.108616,-4.51755,0.61686,-0.912969,1.05797,0.0195479,0.888178,0.283307,0.139588,2.95852,0.0653928,-0.0185337,-0.00938416,-0.0488919,0.0169162,0.106312,0,0,0,0,0,0,0,0,0,0.0193847,0.00124,-0.00173815,1.01959,-0.00117964,0.000450957,-0.00410736,-0.0161759,-0.805318,-1.02077,0.0165406,0.00193144
849,0.000344161,-0.0108051,0.00121593,0.124384,0.0885431,0.0885431,0.0885431,0.0885431,0.0885431,0.0885431,0.0885431,0.0885431,0.0885431,0.248862,0.9044,-0.0114569,0.938084,-0.0108051,0.00121593,0.124384,-0.0354248,-0.0315211,0.0198097,0.00484583,0.00303555,0.00904882,0.0885431,-2.3885,1.29653,0.171125,-0.0739697,-1.23144,-0.095079,-3.68078,-0.0542906,-0.0429353,0.814145,-0.272882,2.57518,-0.741391,-0.0038399,0.981218,-0.0354248,-0.0315211,0.0198097,0.00484583,0.00303555,0.00904882,0,0,0,0,0,0,0,0,0,-0.00743448,-0.00928485,0.00058958,0.585844,0.000493458,0.000806462,0.00264433,-0.07828,-0.229542,-0.586597,0.0755816,0.00286082
850,0.000344161,0.102738,0.0755517,0.131316,0.075214,0.075214,0.075214,0.075214,0.075214,0.075214,0.075214,0.075214,0.075214,0.336953,-0.757096,0.024786,0.829063,0.102738,0.0755517,0.131316,0.108038,-0.00255224,0.00309753,0.00625175,-0.0103145,0.07593,0.075214,4.84911,-7.17744,0.734081,-0.0480641,4.92479,-0.457129,-2.03445,2.14992,0.342243,1.86127,0.377165,0.719947,-1.88876,0.0439363,1.18319,0.108038,-0.00255224,0.00309753,0.00625175,-0.0103145,0.07593,0,0,0,0,0,0,0,0,0,0.0160292,0.0185255,0.00506183,0.66778,0.00060801,0.00225345,-0.00451773,0.05936,-0.293286,-0.67232,-0.0556915,-0.00566087
851,0.000344161,-0.0357895,-0.0103712,0.448885,0.0648248,0.0648248,0.0648248,0.0648248,0.0648248,0.0648248,0.0648248,0.0648248,0.0648248,0.868305,-0.538584,0.0351752,1.02238,-0.0357895,-0.0103712,0.448885,0.0559392,-0.038945,-0.0169067,0.0595649,0.0894699,0.0711327,0.0648248,1.14868,-10.9637,0.850773,-2.75681,1.00824,-1.04823,-1.90318,9.99128,-0.519268,-2.30516,-0.684275,-0.677702,5.07234,0.135561,2.132,0.0559392,-0.038945,-0.0169067,0.0595649,0.0894699,0.0711327,0,0,0,0,0,0,0,0,0,0.0325669,0.00492507,0.00513215,0.94321,0.00221899,0.00298614,-0.00339652,0.0963033,-0.756942,-0.953861,-0.102251,-6.45402e-05
852,0.000344161,0.198188,-0.13759,0.118054,0.00634054,0.00634054,0.00634054,0.00634054,0.00634054,0.00634054,0.00634054,0.00634054,0.00634054,-0.573604,0.283183,-0.0936595,0.646519,0.198188,-0.13759,0.118054,-0.0816801,-0.138832,0.0602198,-0.0351841,0.0548712,0.0373179,0.00634054,-1.44324,14.3608,-1.43173,1.62848,-7.55554,-0.0209479,-0.545679,-7.00347,-1.32148,3.20625,-0.0277016,0.452099,-4.69715,0.00229961,-0.0244737,-0.0816801,-0.138832,0.0602198,-0.0351841,0.0548712,0.0373179,0,0,0,0,0,0,0,0,0,-0.00211017,-0.00434541,-0.0110903,0.0186825,-0.00136867,-0.00461527,-0.00350414,0.0124495,-0.00167575,-0.0182898,-0.0121778,0.00347728
853,0.000344161,-0.288561,-0.0934248,2.37382,0.0134245,0.0134245,0.0134245,0.0134245,0.0134245,0.0134245,0.0134245,0.0134245,0.0134245,0.828759,-0.117037,0.0556359,0.838829,-0.288561,-0.0934248,2.37382,0.0452415,-0.138582,0.0714188,-0.0500889,-0.0620894,0.104309,0.0134245,0.00375831,3.35105,-0.17999,17.6029,-2.4137,0.0262526,-2.02906,-0.648795,-3.0605,-7.50616,0.833072,-2.17208,-10.0033,0.179908,1.82732,0.0452415,-0.138582,0.0714188,-0.0500889,-0.0620894,0.104309,0,0,0,0,0,0,0,0,0,0.0553286,0.00344966,0.00499037,1.01131,0.000863193,-0.00817609,-0.0123483,0.0322159,-0.746872,-1.01033,-0.0245061,0.00462575
854,0.000344161,-0.419434,-0.431796,0.42526,0.0443074,0.0443074,0.0443074,0.0443074,0.0443074,0.0443074,0.0443074,0.0443074,0.0443074,0.955693,0.688077,-0.0509529,1.17873,-0.419434,-0.431796,0.42526,-0.0175601,0.0709561,0.0764313,0.0118849,0.0666304,0.0841269,0.0443074,-0.306754,17.5869,0.386374,-11.1902,-1.18703,-1.0749,-4.42255,-15.9804,0.785085,-3.4858,0.786362,-2.0307,15.1078,0.0630918,6.02799,-0.0175601,0.0709561,0.0764313,0.0118849,0.0666304,0.0841269,0,0,0,0,0,0,0,0,0,-0.0483934,-0.00233681,0.00630619,0.935418,0.00490086,-0.00173289,0.00326961,-0.111222,-0.824881,-0.945403,0.119752,2.08532e-05
855,0.000344161,-0.0727327,-0.00498143,0.246827,0.0887692,0.0887692,0.0887692,0.0887692,0.0887692,0.0887692,0.0887692,0.0887692,0.0887692,0.715175,0.617441,-0.0112308,0.944899,-0.0727327,-0.00498143,0.246827,0.0393418,-0.0797188,0.0310822,0.0428084,-0.00586891,0.0458143,0.0887692,-0.93683,3.11563,0.412347,-0.465441,-0.675477,-0.941234,-2.9195,-2.36742,-0.0021382,0.107254,0.259637,0.508206,0.363168,-0.00396428,2.16447,0.0393418,-0.0797188,0.0310822,0.0428084,-0.00586891,0.0458143,0,0,0,0,0,0,0,0,0,-0.0109807,-0.00354709,0.00232298,0.897009,0.000374226,0.0010033,0.0011437,-0.0833048,-0.608148,-0.90611,0.0858425,0.0011496
856,0.000344161,-0.19809,0.265443,2.81827,0.00631824,0.00631824,0.00631824,0.00631824,0.00631824,0.00631824,0.00631824,0.00631824,0.00631824,0.522458,-0.672759,-0.0936818,0.856938,-0.19809,0.265443,2.81827,-0.651054,0.111697,-0.0698547,0.185354,-0.0905786,0.173155,0.00631824,-12.3568,27.1751,-3.55584,9.68349,-16.7003,-0.0635783,-0.571123,-10.2768,-1.05957,-11.905,0.0164133,0.569156,1.95611,-0.0452464,-2.8163,-0.651054,0.111697,-0.0698547,0.185354,-0.0905786,0.173155,0,0,0,0,0,0,0,0,0,-0.0761063,-0.049169,-0.0220343,0.807203,-0.00739396,-0.0124072,0.0114991,0.0664013,-0.437207,-0.808537,-0.0671429,0.0165097
857,0.000344161,-0.0205839,-0.0192266,0.227679,0.0896096,0.0896096,0.0896096,0.0896096,0.0896096,0.0896096,0.0896096,0.0896096,0.0896096,0.605634,-0.702783,0.0103904,0.927796,-0.0205839,-0.0192266,0.227679,0.0629519,0.00606696,0.00846863,0.0474803,-0.0224447,0.0801875,0.0896096,1.16616,-2.40685,0.241105,-0.530347,0.798365,-0.93212,-2.11047,1.62907,0.0124751,0.186037,-0.0832763,0.227455,0.363537,0.0309024,1.65534,0.0629519,0.00606696,0.00846863,0.0474803,-0.0224447,0.0801875,0,0,0,0,0,0,0,0,0,0.00817601,0.00452998,0.00184328,0.83972,-0.000171298,0.000628442,-0.00131578,0.0826178,-0.503227,-0.848957,-0.083675,-0.00106011
858,0.000344161,-0.0613565,-0.108388,0.489734,0.0721602,0.0721602,0.0721602,0.0721602,0.0721602,0.0721602,0.0721602,0.0721602,0.0721602,0.923769,-0.749896,-0.0278398,1.19015,-0.0613565,-0.108388,0.489734,-0.0827137,-0.0746728,0.0295486,0.0612929,0.0399179,0.0941302,0.0721602,-0.331966,10.722,-0.288662,3.96919,-1.16766,-1.33899,-1.04,-9.49296,0.243714,1.71692,-0.631207,-2.23869,-5.57771,0.0177284,2.78896,-0.0827137,-0.0746728,0.0295486,0.0612929,0.0399179,0.0941302,0,0,0,0,0,0,0,0,0,-0.0262058,-0.00207592,-0.00269696,0.922772,-0.00438539,-0.000936397,0.00152251,0.115756,-0.785408,-0.935866,-0.121669,0.000556771
859,0.000344161,-0.0512409,-0.00802279,0.388517,0.026213,0.026213,0.026213,0.026213,0.026213,0.026213,0.026213,0.026213,0.026213,0.112936,0.764939,-0.073787,0.776743,-0.0512409,-0.00802279,0.388517,0.119293,-0.0678827,0.0541496,0.00784564,0.0273499,0.00769758,0.026213,-17.1869,-2.94512,0.99887,8.32104,9.25348,-0.213824,0.248036,-6.25712,-0.690277,-0.68559,-0.223233,-0.539646,-7.62743,-0.0512876,-0.0969063,0.119293,-0.0678827,0.0541496,0.00784564,0.0273499,0.00769758,0,0,0,0,0,0,0,0,0,-0.0362724,-0.064807,0.00135523,0.483937,0.00199301,0.00795465,0.017119,-0.0307182,-0.16454,-0.485534,0.0287593,0.0203132
860,0.000344161,-0.0629008,0.0261747,0.377754,0.0822639,0.0822639,0.0822639,0.0822639,0.0822639,0.0822639,0.0822639,0.0822639,0.0822639,0.777416,0.616145,0.0177361,0.992131,-0.0629008,0.0261747,0.377754,0.0222707,-0.0418002,0.0265121,0.0618549,-0.0211926,0.0649219,0.0822639,1.13919,-4.50426,-0.407781,0.65204,0.693632,-1.08504,-2.27031,3.87353,-0.0796414,0.434279,0.396407,-0.435269,-1.11249,0.0676912,2.32783,0.0222707,-0.0418002,0.0265121,0.0618549,-0.0211926,0.0649219,0,0,0,0,0,0,0,0,0,0.0153034,0.00433468,-0.00220922,0.914515,-0.00217937,-0.0022866,-0.00156158,-0.0902474,-0.665274,-0.925101,0.0939996,-0.000809578
861,0.000344161,-0.0702579,0.0636976,0.919537,0.0425986,0.0425986,0.0425986,0.0425986,0.0425986,0.0425986,0.0425986,0.0425986,0.0425986,0.869022,-0.140379,0.0574014,0.882156,-0.0702579,0.0636976,0.919537,-0.0197864,-0.108035,-0.0107422,0.187882,0.00584054,2.98023e-05,0.0425986,0.254799,3.84367,0.584887,9.68947,-5.41683,-0.0735109,-3.18085,1.64342,-3.18325,-7.73733,0.0644925,1.37425,-2.01584,0.208058,0.887065,-0.0197864,-0.108035,-0.0107422,0.187882,0.00584054,2.98023e-05,0,0,0,0,0,0,0,0,0,0.0571265,0.00411999,0.00621648,1.01149,0.00102816,-0.00144795,-0.0120319,0.0351751,-0.786892,-1.01233,-0.0344717,0.00398536
862,0.000344161,-0.223412,-0.0970917,1.76839,0.00995688,0.00995688,0.00995688,0.00995688,0.00995688,0.00995688,0.00995688,0.00995688,0.00995688,0.727627,-0.945854,0.0900431,1.19674,-0.223412,-0.0970917,1.76839,0.209103,-0.0702435,-0.0283661,0.092335,0.000478745,0.0834298,0.00995688,8.01723,-29.6315,0.532986,-1.22138,9.17037,-0.215482,-0.217271,20.6846,-0.0511047,-0.475267,-0.0263636,0.138318,1.79374,0.0997765,-1.68944,0.209103,-0.0702435,-0.0283661,0.092335,0.000478745,0.0834298,0,0,0,0,0,0,0,0,0,0.0777895,0.0313808,0.00232388,0.875369,0.00982492,0.00230354,-0.00954474,0.121481,-0.583608,-0.877807,-0.12174,-0.00883486
863,0.000344161,0.0688035,0.0276855,0.124604,0.0926108,0.0926108,0.0926108,0.0926108,0.0926108,0.0926108,0.0926108,0.0926108,0.0926108,0.335125,-0.774749,-0.00738924,0.844156,0.0688035,0.0276855,0.124604,0.0667135,-0.00078921,0.00991058,0.0403585,-0.00544024,0.0685754,0.0926108,-1.52237,1.61342,-0.224746,-0.164501,-1.13482,-0.546183,-2.21259,-0.547397,-0.0884238,-0.619662,0.385105,0.774091,0.756477,0.00207033,1.31389,0.0667135,-0.00078921,0.00991058,0.0403585,-0.00544024,0.0685754,0,0,0,0,0,0,0,0,0,-0.00543147,-0.00562473,-0.000778206,0.663399,-0.00132919,-0.00147715,0.00141322,0.0626329,-0.290992,-0.668762,-0.0588363,0.00200678
864,0.000344161,-0.0205172,-0.173983,-0.0565784,0.0132514,0.0132514,0.0132514,0.0132514,0.0132514,0.0132514,0.0132514,0.0132514,0.0132514,-0.583236,0.696457,-0.0867486,0.912547,-0.0205172,-0.173983,-0.0565784,0.0377635,0.0338485,-0.0571365,-0.216618,-0.0163371,0.0766475,0.0132514,-7.38098,-7.14494,-0.266822,-3.72695,7.19634,0.104329,0.735943,-0.0308792,-0.422602,0.788578,0.047824,-0.383774,3.11236,-0.00531141,-0.295591,0.0377635,0.0338485,-0.0571365,-0.216618,-0.0163371,0.0766475,0,0,0,0,0,0,0,0,0,-0.00516149,-0.0275879,-0.00155163,0.0516644,-0.000248382,-0.000778106,0.00593209,-0.00169018,-0.00432625,-0.0511925,0.00200504,0.00948487
865,0.000344161,-3.0317,-1.03018,-0.405005,0.00186949,0.00186949,0.00186949,0.00186949,0.00186949,0.00186949,0.00186949,0.00186949,0.00186949,-0.648428,0.397259,0.0981305,0.766748,-3.0317,-1.03018,-0.405005,2.37598,0.306777,-0.840414,0.20483,-0.0408393,-0.117813,0.00186949,2.71144,-24.4222,1.09138,6.93628,-0.570877,-0.069286,10.8965,28.0248,1.14148,-1.19519,-0.0102144,0.0451542,-4.71091,0.0152124,-10.5366,2.37598,0.306777,-0.840414,0.20483,-0.0408393,-0.117813,0,0,0,0,0,0,0,0,0,0.00133349,0.0181319,0.00685978,0.0126513,0.000333136,0.00712178,-0.000573578,0.00431553,-0.00109596,-0.0217483,-0.00482606,-0.00781815
866,0.000344161,0.101268,0.0289536,0.588282,0.0336254,0.0336254,0.0336254,0.0336254,0.0336254,0.0336254,0.0336254,0.0336254,0.0336254,0.550158,-0.765211,0.0663746,0.94479,0.101268,0.0289536,0.588282,0.028034,-0.114812,0.00662994,0.0107051,-0.0244417,0.0781608,0.0336254,9.2646,-19.3981,1.69243,-2.04178,6.33912,-0.559336,-0.945579,12.9577,0.294713,2.03821,0.00290531,-0.0932075,-0.0253814,0.0923157,0.450504,0.028034,-0.114812,0.00662994,0.0107051,-0.0244417,0.0781608,0,0,0,0,0,0,0,0,0,0.052819,0.0351918,0.0091426,0.806539,0.00463219,0.00663353,-0.00974429,0.084714,-0.452186,-0.812066,-0.0849294,-0.010419
867,0.000344161,0.100155,-0.201572,0.431122,0.0787067,0.0787067,0.0787067,0.0787067,0.0787067,0.0787067,0.0787067,0.0787067,0.0787067,0.912157,-0.518458,-0.0212933,1.04942,0.100155,-0.201572,0.431122,-0.00521785,-0.0453558,0.00901031,-0.00251165,0.0553579,0.121703,0.0787067,-0.307633,7.82427,-0.451262,4.70276,-0.648208,-1.21869,-2.15812,-7.27622,0.572106,2.20542,-1.00226,-1.08024,-6.7066,0.00616676,2.80724,-0.00521785,-0.0453558,0.00901031,-0.00251165,0.0553579,0.121703,0,0,0,0,0,0,0,0,0,-0.0208418,-0.00200804,-0.00381805,0.951245,-0.0032151,-0.00114812,0.00240419,0.0972662,-0.801109,-0.963342,-0.106735,0.000195564
868,0.000344161,-0.0213575,-0.00861028,0.289784,0.0725178,0.0725178,0.0725178,0.0725178,0.0725178,0.0725178,0.0725178,0.0725178,0.0725178,0.801706,-0.420843,0.0274822,0.905868,-0.0213575,-0.00861028,0.289784,0.0125118,-0.0621799,0.0237732,0.0633896,0.0481467,0.0754284,0.0725178,1.00643,-1.5778,0.711883,0.427459,-1.258,-0.54703,-7.54258,2.85715,-0.355363,-0.609064,-0.170579,4.85312,0.190215,0.097167,2.39968,0.0125118,-0.0621799,0.0237732,0.0633896,0.0481467,0.0754284,0,0,0,0,0,0,0,0,0,0.0255457,0.00405674,0.00496778,0.952704,0.00100828,0.00152925,-0.00249782,0.0774608,-0.703977,-0.957937,-0.0786851,-0.000174978
869,0.000344161,-0.0417097,-0.0239502,0.255859,0.0621431,0.0621431,0.0621431,0.0621431,0.0621431,0.0621431,0.0621431,0.0621431,0.0621431,0.606019,-0.937857,0.0166134,1.11674,-0.0417097,-0.0239502,0.255859,0.0635429,-0.00611118,-0.000289917,0.0385104,0.00572491,0.0924467,0.0621431,2.11988,-4.41347,0.109006,-0.204096,1.58281,-0.902005,-2.00094,2.87237,0.00738549,0.154928,-0.0287629,0.34242,0.0731179,0.0402282,1.40266,0.0635429,-0.00611118,-0.000289917,0.0385104,0.00572491,0.0924467,0,0,0,0,0,0,0,0,0,0.012995,0.00819174,0.000677347,0.817525,0.000891654,0.000351598,-0.0024959,0.114928,-0.480298,-0.826548,-0.115158,-0.002062
870,0.000344161,0.0338295,-4.91142e-05,0.0122269,0.0569367,0.0569367,0.0569367,0.0569367,0.0569367,0.0569367,0.0569367,0.0569367,0.0569367,-0.363275,-0.699568,-0.0430633,0.789442,0.0338295,-4.91142e-05,0.0122269,0.0102903,-0.0138472,0.0283232,0.0177086,-0.00673467,-0.00315666,0.0569367,-5.22697,-8.76588,0.484654,1.4086,6.2084,0.278428,-1.13482,2.52365,0.224448,-0.258393,-0.138401,0.9221,-1.15016,-0.00418544,0.200496,0.0102903,-0.0138472,0.0283232,0.0177086,-0.00673467,-0.00315666,0,0,0,0,0,0,0,0,0,-0.00651846,-0.0203351,0.00411902,0.137671,-0.000314334,0.000589048,0.00695909,-0.0032465,-0.0234675,-0.134603,0.00179515,0.00571159
871,0.000344161,0.0949509,-0.0474453,0.072176,0.0356184,0.0356184,0.0356184,0.0356184,0.0356184,0.0356184,0.0356184,0.0356184,0.0356184,-0.448525,-0.62457,-0.0643816,0.771626,0.0949509,-0.0474453,0.072176,0.00757539,-0.0536966,0.0163612,-0.00233746,-0.0159373,0.00943732,0.0356184,-6.13169,-9.27402,1.12181,4.32387,8.18326,0.0819599,-0.91946,0.995816,0.0959798,-1.72392,-0.13155,0.702037,-2.55251,-0.00525894,0.145247,0.00757539,-0.0536966,0.0163612,-0.00233746,-0.0159373,0.00943732,0,0,0,0,0,0,0,0,0,-0.00663574,-0.0236672,0.0073811,0.094274,0.000231644,0.0033,0.00742163,-0.00995861,-0.0135105,-0.0932908,0.00848373,0.00697431
872,0.000344161,-0.0512781,-0.00455862,0.0844269,0.0657826,0.0657826,0.0657826,0.0657826,0.0657826,0.0657826,0.0657826,0.0657826,0.0657826,-0.196189,0.810264,-0.0342174,0.834379,-0.0512781,-0.00455862,0.0844269,-0.0178651,-0.0318366,0.0423183,0.00557625,0.0113846,-0.000556231,0.0657826,-5.83785,-8.21707,0.0769596,0.886144,3.64702,0.602134,-1.1922,4.62133,0.128895,-0.592863,0.0116878,0.801172,-0.288722,-0.0109896,0.306605,-0.0178651,-0.0318366,0.0423183,0.00557625,0.0113846,-0.000556231,0,0,0,0,0,0,0,0,0,-0.00890211,-0.0226638,-0.000927647,0.240725,0.000277413,0.00137888,0.00728712,-0.0183682,-0.0535292,-0.23428,0.0185989,0.00655703
873,0.000344161,0.0820193,-0.0103421,0.282512,0.0464415,0.0464415,0.0464415,0.0464415,0.0464415,0.0464415,0.0464415,0.0464415,0.0464415,0.310767,-0.774492,-0.0535585,0.836231,0.0820193,-0.0103421,0.282512,0.111777,0.0214728,0.0155411,0.0538625,-0.00934076,0.0505357,0.0464415,-11.0685,12.0762,-1.4845,-1.01478,-7.16911,-0.377144,-1.43099,-4.98906,-0.638344,-3.49323,0.295309,0.467614,4.51835,-0.04826,0.680865,0.111777,0.0214728,0.0155411,0.0538625,-0.00934076,0.0505357,0,0,0,0,0,0,0,0,0,-0.035084,-0.0414696,-0.00784203,0.645826,-0.00403606,-0.00678824,0.0103918,0.0587564,-0.275301,-0.649442,-0.0558967,0.0133256
874,0.000344161,-0.0298259,0.0262775,0.140752,0.0724521,0.0724521,0.0724521,0.0724521,0.0724521,0.0724521,0.0724521,0.0724521,0.0724521,-0.177601,-0.723331,0.0275479,0.745325,-0.0298259,0.0262775,0.140752,0.0637366,-0.0393617,0.0111103,0.0381912,0.00461009,0.0269195,0.0724521,4.64049,6.83339,-0.360534,-0.972238,-8.60528,-0.217812,-7.05757,1.80171,-0.0260823,3.04309,0.269561,6.39429,-2.09713,0.0160293,0.522532,0.0637366,-0.0393617,0.0111103,0.0381912,0.00461009,0.0269195,0,0,0,0,0,0,0,0,0,0.00618839,0.0180297,-0.00454303,0.245149,-0.000489051,0.000544063,-0.00543094,0.00192065,-0.0582367,-0.247216,0.000821064,-0.00527674
875,0.000344161,0.151953,-0.225479,2.19356,0.0113075,0.0113075,0.0113075,0.0113075,0.0113075,0.0113075,0.0113075,0.0113075,0.0113075,0.553572,0.567701,-0.0198652,0.793172,0.151953,-0.225479,2.19356,0.110553,-0.00289836,0.178413,-0.0287195,-0.0870194,0.0344823,0.0113075,-1.71973,-3.45814,1.13725,-4.00764,-1.41251,1.21865,-8.96594,4.7187,-0.789253,8.21379,-1.0698,5.15724,-3.98067,-0.0431021,1.61514,0.110553,-0.00289836,0.178413,-0.0287195,-0.0870194,0.0344823,0,0,0,0,0,0,0,0,0,-0.0179862,-0.00523537,0.0107367,0.860008,0.000784544,0.00060688,-0.00127936,-0.0650544,-0.469737,-0.846037,0.0534862,0.0027674
876,0.000344161,-0.726944,0.0701256,5.97173,0.00542147,0.00542147,0.00542147,0.00542147,0.00542147,0.00542147,0.00542147,0.00542147,0.00542147,0.885564,-0.478206,0.0945785,1.01087,-0.726944,0.0701256,5.97173,-0.180267,0.165712,-0.0390396,0.249999,0.12764,0.221964,0.00542147,3.03739,-20.1496,2.28247,-11.2535,2.60296,-0.104776,0.0427142,18.2736,-2.06637,-7.92788,-0.106925,-0.0806746,19.1112,0.138608,-5.93377,-0.180267,0.165712,-0.0390396,0.249999,0.12764,0.221964,0,0,0,0,0,0,0,0,0,0.089899,0.0126687,0.0148723,0.962299,0.00764555,0.0096095,-0.0106988,0.0982787,-0.779548,-0.963737,-0.0980715,0.000185944
877,0.000344161,-0.0378513,-0.0548447,-0.0318776,0.0530576,0.0530576,0.0530576,0.0530576,0.0530576,0.0530576,0.0530576,0.0530576,0.0530576,-0.499715,0.420507,-0.0184424,0.653362,-0.0378513,-0.0548447,-0.0318776,0.017891,-0.00833651,0.0410933,-0.0121361,0.0281308,0.00610349,0.0530576,-0.683022,3.85065,-0.473371,-0.110686,-1.35607,-0.636773,-8.38868,-2.45673,-0.307296,1.81244,-0.46048,8.28649,-1.64691,-0.00590946,0.134076,0.017891,-0.00833651,0.0410933,-0.0121361,0.0281308,0.00610349,0,0,0,0,0,0,0,0,0,-0.00138836,-0.00218984,-0.00418293,0.0445022,-0.000668684,-0.000634144,-0.000461353,0.0176143,-0.00631062,-0.050459,-0.0219378,0.00113678
878,0.000344161,-0.0340036,-0.0284406,0.0382133,0.09707,0.09707,0.09707,0.09707,0.09707,0.09707,0.09707,0.09707,0.09707,-0.61051,-0.609226,0.00293001,0.862489,-0.0340036,-0.0284406,0.0382133,0.0154753,-0.00879377,0.0361333,-0.00425424,-0.00348886,0.000147954,0.09707,0.181813,0.397292,-0.0245835,-0.339187,-0.302026,0.0768492,-1.35316,-0.0612622,0.0382545,0.110239,-0.259039,-1.62797,0.257389,-0.00541029,2.94291,0.0154753,-0.00879377,0.0361333,-0.00425424,-0.00348886,0.000147954,0,0,0,0,0,0,0,0,0,-0.000445217,0.000725641,-4.33149e-05,0.0417454,-0.000386069,-0.000290458,-9.07981e-05,-0.00382794,-0.00261398,-0.0406156,0.00120266,-0.000287111
879,0.000344161,-0.00402564,0.0103586,0.224878,0.0619103,0.0619103,0.0619103,0.0619103,0.0619103,0.0619103,0.0619103,0.0619103,0.0619103,0.52987,-0.93809,0.00155199,1.07739,-0.00402564,0.0103586,0.224878,0.0571517,-0.001473,-0.00455475,0.0355058,0.00359726,0.0834587,0.0619103,0.230248,-0.107439,-0.00587956,-0.0507691,-0.0368834,-0.760312,-2.27617,0.148349,0.00258134,0.0260863,0.00568839,0.758282,0.0143242,0.0166187,1.29301,0.0571517,-0.001473,-0.00455475,0.0355058,0.00359726,0.0834587,0,0,0,0,0,0,0,0,0,0.000614673,0.000945962,0.00036431,0.777097,-0.000805849,-0.000437836,-0.0003006,0.110525,-0.418863,-0.784746,-0.110432,9.35141e-06
880,0.000344161,-0.0508375,-0.0484877,0.404798,0.0354075,0.0354075,0.0354075,0.0354075,0.0354075,0.0354075,0.0354075,0.0354075,0.0354075,0.335758,0.777006,-0.0645925,0.848907,-0.0508375,-0.0484877,0.404798,0.0092988,-0.0641983,0.0216217,0.027637,-0.0161748,0.00972605,0.0354075,-12.9299,15.715,1.77216,0.43133,-8.48812,-0.344717,-1.31875,-7.17603,-0.692421,4.37229,-0.200491,0.450603,-4.75513,-0.0492725,0.463347,0.0092988,-0.0641983,0.0216217,0.027637,-0.0161748,0.00972605,0,0,0,0,0,0,0,0,0,-0.0437779,-0.0488818,0.0101575,0.666945,0.00345152,0.0069221,0.0123971,-0.0593189,-0.293018,-0.670176,0.0571523,0.0155233
881,0.000344161,-2.76795,1.37008,28.9613,0.000896207,0.000896207,0.000896207,0.000896207,0.000896207,0.000896207,0.000896207,0.000896207,0.000896207,0.814988,0.568719,0.0991038,0.998734,-2.76795,1.37008,28.9613,0.743911,-0.254116,-0.0972214,-0.156675,-0.0287466,0.173739,0.000896207,4.48201,-22.9962,-2.40805,10.66,4.51387,-0.0201819,0.0231547,21.2503,-0.615002,2.72567,0.0157137,-0.0190916,-14.7558,0.0711372,-28.9653,0.743911,-0.254116,-0.0972214,-0.156675,-0.0287466,0.173739,0,0,0,0,0,0,0,0,0,0.0914971,0.0207075,-0.0142994,0.937682,-0.00963382,-0.0123222,-0.00928045,-0.0942009,-0.704985,-0.938856,0.0940706,-0.00419768
882,0.000344161,1.95746,-1.17886,34.9401,0.000316111,0.000316111,0.000316111,0.000316111,0.000316111,0.000316111,0.000316111,0.000316111,0.000316111,0.62738,-0.819173,0.0996839,1.03662,1.95746,-1.17886,34.9401,2.28076,0.00385439,0.0102234,0.00211263,0.0190697,0.156995,0.000316111,9.67834,-28.4263,1.77224,-3.27429,7.98879,-0.00757168,-0.0139839,18.48,0.244213,2.73793,-0.00175497,-0.010891,1.71522,0.0349553,-34.9152,2.28076,0.00385439,0.0102234,0.00211263,0.0190697,0.156995,0,0,0,0,0,0,0,0,0,0.0829642,0.0454908,0.00951722,0.844158,0.008934,0.00824372,-0.013073,0.100595,-0.511551,-0.844131,-0.100422,-0.0133449
883,0.000344161,-0.115887,-0.103411,0.827427,0.0225562,0.0225562,0.0225562,0.0225562,0.0225562,0.0225562,0.0225562,0.0225562,0.0225562,0.674109,-0.977444,0.0691605,1.18937,-0.115887,-0.103411,0.827427,0.0429684,-0.0332279,0.021965,0.0273654,0.00703812,0.0790756,0.0225562,7.44739,-22.2208,0.196519,-0.303059,8.85387,-0.504758,-1.18637,13.4828,0.00759312,-0.0689614,-0.0490456,0.335462,0.475431,0.105279,0.0234772,0.0429684,-0.0332279,0.021965,0.0273654,0.00703812,0.0790756,0,0,0,0,0,0,0,0,0,0.0581006,0.028556,0.000250661,0.851178,0.00746662,0.00138225,-0.00872099,0.123308,-0.533146,-0.856006,-0.123728,-0.00797401
884,0.000344161,-0.0573854,0.0811958,0.812584,0.036358,0.036358,0.036358,0.036358,0.036358,0.036358,0.036358,0.036358,0.036358,0.787785,-0.607168,0.063642,0.996649,-0.0573854,0.0811958,0.812584,0.121011,-0.156542,-0.0507584,0.0426949,0.0292444,0.0650302,0.036358,3.78144,-17.402,1.76551,-2.6834,2.8797,-0.664573,-0.997191,14.5797,-0.358255,-2.31132,-0.270925,-0.327792,4.91352,0.142419,0.512398,0.121011,-0.156542,-0.0507584,0.0426949,0.0292444,0.0650302,0,0,0,0,0,0,0,0,0,0.0578337,0.0151342,0.00920064,0.919871,0.00486848,0.00688905,-0.00595588,0.0949709,-0.674372,-0.927024,-0.0973877,-0.00334084
885,0.000344161,0.113587,0.148951,0.358457,0.0818481,0.0818481,0.0818481,0.0818481,0.0818481,0.0818481,0.0818481,0.0818481,0.0818481,0.913786,0.583686,-0.0181519,1.08445,0.113587,0.148951,0.358457,-0.00475767,-0.0147241,0.0111618,0.0108697,-0.0344439,0.0889753,0.0818481,-0.250266,7.07569,0.348306,-3.99604,-0.711642,-1.29813,-1.46888,-6.47764,0.385123,-1.76446,0.933626,-1.61373,5.61155,0.0179884,2.72415,-0.00475767,-0.0147241,0.0111618,0.0108697,-0.0344439,0.0889753,0,0,0,0,0,0,0,0,0,-0.0180273,-0.0015612,0.00312679,0.94266,0.00117146,0.000209025,0.00169389,-0.100288,-0.797043,-0.955529,0.10928,0.000248742
886,0.000344161,-0.0984635,0.0393474,-0.0311093,0.0302538,0.0302538,0.0302538,0.0302538,0.0302538,0.0302538,0.0302538,0.0302538,0.0302538,-0.592191,-0.362728,0.0697462,0.697945,-0.0984635,0.0393474,-0.0311093,-0.0244877,0.0298479,0.0248401,0.00746405,-0.0438412,-0.00508761,0.0302538,2.4105,-6.32344,-1.38029,-4.14962,2.07958,-0.15125,-0.0991167,4.34233,0.862278,1.40196,-0.0770019,1.08555,2.70831,0.0207847,-0.95532,-0.0244877,0.0298479,0.0248401,0.00746405,-0.0438412,-0.00508761,0,0,0,0,0,0,0,0,0,0.00111766,0.0081553,-0.00820527,0.0247849,-0.00116106,-0.00529913,0.000573962,-0.010991,-0.00200381,-0.026049,0.00978253,-0.00369626
887,0.000344161,-0.0466968,-0.0494251,0.190845,0.067112,0.067112,0.067112,0.067112,0.067112,0.067112,0.067112,0.067112,0.067112,0.112121,-0.767004,0.00416266,0.775167,-0.0466968,-0.0494251,0.190845,0.0854823,-0.0217165,-0.02351,0.0269426,0.00376511,0.0446032,0.067112,0.920648,0.10937,0.0496389,0.385304,-0.289758,-0.429639,0.33403,0.227085,0.046079,0.0604625,0.508298,-1.63011,-0.396342,0.00442925,1.10523,0.0854823,-0.0217165,-0.02351,0.0269426,0.00376511,0.0446032,0,0,0,0,0,0,0,0,0,0.00146383,0.0037289,0.000456062,0.478624,-0.000568585,-0.000176838,-0.000936644,0.0354403,-0.16247,-0.483155,-0.0303197,-0.00105659
888,0.000344161,0.305405,-0.250101,0.564688,0.03419,0.03419,0.03419,0.03419,0.03419,0.03419,0.03419,0.03419,0.03419,0.895021,0.883771,-0.06581,1.25954,0.305405,-0.250101,0.564688,0.180615,0.0069705,-0.0182343,-0.0140463,0.00349331,0.0140231,0.03419,-2.16958,23.7701,0.41763,-2.29259,-3.52082,-0.732014,-0.422044,-20.5547,0.129072,-1.44348,0.135657,-0.780428,3.98617,-0.0891583,0.637783,0.180615,0.0069705,-0.0182343,-0.0140463,0.00349331,0.0140231,0,0,0,0,0,0,0,0,0,-0.0608697,-0.00769588,0.00351411,0.916525,0.00716127,0.000731894,0.00282406,-0.119088,-0.744783,-0.924027,0.120479,0.00187325
889,0.000344161,-0.121149,-0.217874,0.98644,0.013615,0.013615,0.013615,0.013615,0.013615,0.013615,0.013615,0.013615,0.013615,0.405313,-0.986385,0.0833351,1.06966,-0.121149,-0.217874,0.98644,-0.0999918,0.135711,0.0349579,0.00254297,0.000267029,0.0681357,0.013615,15.1228,-17.5684,0.1949,-0.215385,16.0056,-0.047704,-1.17061,1.68398,0.0006701,0.0495604,-0.0224099,0.777459,0.383698,0.06623,-0.593292,-0.0999918,0.135711,0.0349579,0.00254297,0.000267029,0.0681357,0,0,0,0,0,0,0,0,0,0.057617,0.0576213,-0.00188079,0.697969,0.00839049,0.0051869,-0.0174767,0.1117,-0.321619,-0.698096,-0.111921,-0.0168209
890,0.000344161,0.0215616,0.0257246,0.117196,0.0593546,0.0593546,0.0593546,0.0593546,0.0593546,0.0593546,0.0593546,0.0593546,0.0593546,0.258328,-0.793212,0.0406454,0.835207,0.0215616,0.0257246,0.117196,0.0995349,-0.0447587,-0.0411644,0.0024066,-0.017549,0.0583756,0.0593546,8.61591,-7.13091,0.964954,1.34614,3.82792,-0.352309,-1.51832,3.28142,0.487867,2.56685,0.397445,0.611944,-3.93871,0.0529834,0.789181,0.0995349,-0.0447587,-0.0411644,0.0024066,-0.017549,0.0583756,0,0,0,0,0,0,0,0,0,0.0238828,0.0328267,0.00535071,0.600956,0.00151866,0.00385124,-0.0082991,0.0569854,-0.241214,-0.60489,-0.0531865,-0.0101937
891,0.000344161,-0.588763,-0.385554,1.98744,0.0165913,0.0165913,0.0165913,0.0165913,0.0165913,0.0165913,0.0165913,0.0165913,0.0165913,0.810462,-0.28903,0.0834087,0.864491,-0.588763,-0.385554,1.98744,-0.0712688,-0.143737,0.0128784,-0.0165604,0.0461183,0.0655745,0.0165913,1.46382,16.2089,1.43626,19.6437,-14.4343,-0.00762269,-4.04778,-1.1858,-1.99379,-6.81882,0.195241,3.97207,-12.4393,0.166111,-1.91173,-0.0712688,-0.143737,0.0128784,-0.0165604,0.0461183,0.0655745,0,0,0,0,0,0,0,0,0,0.0810842,0.00740825,0.0160629,0.980484,0.00416831,-0.0031376,-0.00960621,0.0595156,-0.721482,-0.980431,-0.057102,0.00160394
892,0.000344161,0.0101357,-0.0341451,0.0391067,0.0535627,0.0535627,0.0535627,0.0535627,0.0535627,0.0535627,0.0535627,0.0535627,0.0535627,-0.260893,0.755003,-0.0464373,0.800157,0.0101357,-0.0341451,0.0391067,-0.00527275,-0.0190105,0.0297661,0.0123928,0.0240944,-0.00282192,0.0535627,-7.06579,-11.5387,-0.261399,0.0127675,6.94516,0.380525,-1.37741,4.58336,0.265656,-0.356035,0.0562251,1.08222,0.377412,-0.011254,0.256087,-0.00527275,-0.0190105,0.0297661,0.0123928,0.0240944,-0.00282192,0,0,0,0,0,0,0,0,0,-0.00983041,-0.027501,-0.00330181,0.197485,-0.00010735,0.00049772,0.00924458,-0.00509923,-0.0404605,-0.193382,0.00590242,0.00778396
893,0.000344161,-0.0525103,0.0206027,0.109575,0.0607896,0.0607896,0.0607896,0.0607896,0.0607896,0.0607896,0.0607896,0.0607896,0.0607896,-0.205986,-0.93921,0.0308881,0.962029,-0.0525103,0.0206027,0.109575,0.0652199,-0.0230333,-0.055212,0.0157923,-0.00442553,0.0189099,0.0607896,5.14096,6.82266,0.188038,0.35758,1.77943,1.28129,-0.129935,-8.54958,-0.0300069,-0.720683,-0.044798,-0.20248,0.3425,0.0108032,0.222839,0.0652199,-0.0230333,-0.055212,0.0157923,-0.00442553,0.0189099,0,0,0,0,0,0,0,0,0,0.00657846,0.0200059,-0.000121566,0.232592,0.000872014,0.00177161,-0.00609609,0.0454478,-0.0464459,-0.220332,-0.04594,-0.00587645
894,0.000344161,-0.0459968,0.0106485,0.0368468,0.0920645,0.0920645,0.0920645,0.0920645,0.0920645,0.0920645,0.0920645,0.0920645,0.0920645,-0.449467,-0.641353,0.00793551,0.783209,-0.0459968,0.0106485,0.0368468,0.0396833,-0.00438044,0.0260038,0.010828,-0.00402904,0.00340381,0.0920645,0.75887,1.30186,-0.128759,-0.495284,-1.00961,0.157084,-0.837487,-0.246253,0.0121404,0.279694,-0.22236,0.662624,0.204941,0.00659245,0.138016,0.0396833,-0.00438044,0.0260038,0.010828,-0.00402904,0.00340381,0,0,0,0,0,0,0,0,0,0.000186853,0.00303332,-0.000605559,0.095711,-0.000484297,-0.000725837,-0.000844602,-0.0082133,-0.0133209,-0.0938802,0.00594941,-0.000909463
895,0.000344161,-0.190113,0.0387845,0.404273,0.048257,0.048257,0.048257,0.048257,0.048257,0.048257,0.048257,0.048257,0.048257,0.671982,-0.934234,-0.051743,1.15197,-0.190113,0.0387845,0.404273,0.138741,-0.0108019,0.015274,0.0192316,-0.000844002,0.080466,0.048257,-5.66662,16.2236,-0.400254,0.724034,-5.19427,-0.775745,-1.24785,-10.8393,-0.00982399,-0.35027,-0.0446225,0.0139523,-0.412548,-0.0554634,0.829621,0.138741,-0.0108019,0.015274,0.0192316,-0.000844002,0.080466,0,0,0,0,0,0,0,0,0,-0.044461,-0.0213008,-0.0013463,0.849596,-0.00713842,-0.00276426,0.00638565,0.11763,-0.536457,-0.857201,-0.118085,0.00646363
896,0.000344161,0.374769,-0.0797964,1.10652,0.0217912,0.0217912,0.0217912,0.0217912,0.0217912,0.0217912,0.0217912,0.0217912,0.0217912,0.763245,0.923398,-0.0782088,1.20055,0.374769,-0.0797964,1.10652,0.0502163,0.01339,-0.0258026,-0.00766158,-0.015399,0.102394,0.0217912,-6.13508,25.3825,0.499954,-1.38607,-6.153,-0.447021,-0.230035,-19.6043,0.0420776,-0.237762,0.0445999,-0.0826972,1.70363,-0.072386,-0.793793,0.0502163,0.01339,-0.0258026,-0.00766158,-0.015399,0.102394,0,0,0,0,0,0,0,0,0,-0.0699384,-0.0234777,0.0028801,0.887874,0.00859422,0.00225334,0.00711874,-0.117395,-0.620179,-0.892602,0.117687,0.00709671
897,0.000344161,-0.0221691,0.108373,0.145594,0.0311039,0.0311039,0.0311039,0.0311039,0.0311039,0.0311039,0.0311039,0.0311039,0.0311039,-0.608204,-0.452214,-0.0688961,0.761023,-0.0221691,0.108373,0.145594,0.0799512,-0.0875492,0.0581701,-0.0200468,-0.0313292,-0.0306723,0.0311039,-3.7222,0.610766,1.25034,5.99947,2.16009,-0.134221,1.54646,-2.74869,-0.724134,-0.878123,-0.193282,0.339042,-5.22972,-0.0524151,-2.0311,0.0799512,-0.0875492,0.0581701,-0.0200468,-0.0313292,-0.0306723,0,0,0,0,0,0,0,0,0,-0.00269936,-0.0130541,0.00653171,0.0319365,0.000284409,0.00509622,0.00143623,-0.00877561,-0.00225741,-0.032697,0.0065295,0.0047417
898,0.000344161,-0.013345,-0.000282407,-0.00113279,0.0691738,0.0691738,0.0691738,0.0691738,0.0691738,0.0691738,0.0691738,0.0691738,0.0691738,-0.561998,-0.539015,-0.0308262,0.779314,-0.013345,-0.000282407,-0.00113279,0.02067,-0.0353427,-0.00540733,0.00242156,-0.0110128,0.00478357,0.0691738,-2.15161,-1.8289,0.529732,2.52812,2.38117,-0.0686939,-0.245902,-0.538924,-0.21129,-0.725702,-0.294567,0.0068431,-1.80213,-0.0186416,0.240192,0.02067,-0.0353427,-0.00540733,0.00242156,-0.0110128,0.00478357,0,0,0,0,0,0,0,0,0,-0.00209261,-0.00793892,0.00309854,0.0497268,-7.3025e-05,0.00184535,0.00167142,-0.00986753,-0.0046213,-0.0504678,0.00681173,0.00264647
899,0.000344161,-0.107318,0.0507329,0.0578367,0.0409556,0.0409556,0.0409556,0.0409556,0.0409556,0.0409556,0.0409556,0.0409556,0.0409556,-0.525912,0.648861,0.0590444,0.837312,-0.107318,0.0507329,0.0578367,0.00798565,-0.0470891,0.0239668,0.0280634,0.0109876,-0.00540519,0.0409556,5.16683,7.30751,0.587548,3.1929,-5.75859,0.123209,0.55573,-1.4416,0.201116,-0.576998,0.169677,-0.565726,-2.66663,0.00150617,-0.0478407,0.00798565,-0.0470891,0.0239668,0.0280634,0.0109876,-0.00540519,0,0,0,0,0,0,0,0,0,0.00351419,0.0196432,0.00328449,0.0695093,-8.54675e-05,0.0021201,-0.00508499,0.00385692,-0.00753677,-0.0680375,-0.00205027,-0.00625038
900,0.000344161,-0.0884435,0.0420659,0.330681,0.0746108,0.0746108,0.0746108,0.0746108,0.0746108,0.0746108,0.0746108,0.0746108,0.0746108,0.551452,0.653784,0.0253892,0.855673,-0.0884435,0.0420659,0.330681,0.00719291,-0.0541508,0.0752411,0.0215052,-0.0158415,0.0384877,0.0746108,3.08616,-5.91131,-0.916103,3.039,4.3589,-0.420284,-6.45254,1.64086,0.301199,-3.76028,-0.140376,4.74846,0.679207,0.0570046,1.37341,0.00719291,-0.0541508,0.0752411,0.0215052,-0.0158415,0.0384877,0,0,0,0,0,0,0,0,0,0.020133,0.011415,-0.00641244,0.826949,-0.00223089,-0.0032901,-0.00243827,-0.0676789,-0.462813,-0.830399,0.0661167,-0.00357433
901,0.000344161,-0.0476665,0.0593735,0.458075,0.051803,0.051803,0.051803,0.051803,0.051803,0.051803,0.051803,0.051803,0.051803,0.783855,0.803798,0.048197,1.12376,-0.0476665,0.0593735,0.458075,0.0486082,-0.00619897,0.0412292,0.0490592,-0.0250101,0.0409163,0.051803,3.31601,-16.2188,-0.729664,1.40794,3.33888,-0.997888,-0.754672,12.9276,-0.0367509,0.531074,0.1858,-0.901149,-1.99839,0.118254,1.19774,0.0486082,-0.00619897,0.0412292,0.0490592,-0.0250101,0.0409163,0,0,0,0,0,0,0,0,0,0.0423038,0.012743,-0.00359482,0.896944,-0.00575766,-0.00376381,-0.00401857,-0.107822,-0.652086,-0.90651,0.10943,-0.00328426
902,0.000344161,0.284246,-0.186007,1.99868,0.00933841,0.00933841,0.00933841,0.00933841,0.00933841,0.00933841,0.00933841,0.00933841,0.00933841,0.4912,0.76935,-0.0906616,0.917277,0.284246,-0.186007,1.99868,-0.32122,-0.0337933,-0.00217438,0.058075,0.0561047,0.0712218,0.00933841,-13.9657,26.2565,2.31807,-2.63042,-9.45397,-0.158029,-0.258574,-17.0867,-0.514374,3.87291,-0.00657475,-0.0225641,-1.05648,-0.0446626,-1.71755,-0.32122,-0.0337933,-0.00217438,0.058075,0.0561047,0.0712218,0,0,0,0,0,0,0,0,0,-0.0708979,-0.0544539,0.01301,0.776784,0.0064008,0.00983278,0.0146993,-0.0750027,-0.406865,-0.778386,0.075498,0.0171136
903,0.000344161,-0.128283,-0.0255942,0.089979,0.0360687,0.0360687,0.0360687,0.0360687,0.0360687,0.0360687,0.0360687,0.0360687,0.0360687,-0.469822,0.50502,0.0639313,0.692723,-0.128283,-0.0255942,0.089979,-0.00881785,-0.00854975,0.0451374,0.0354645,0.0480158,0.0314435,0.0360687,4.11149,-3.12087,1.77991,5.60412,-3.46285,-0.269234,-4.38268,6.712,0.475059,-7.30236,-0.100888,4.5212,1.72384,0.0129205,-0.228496,-0.00881785,-0.00854975,0.0451374,0.0354645,0.0480158,0.0314435,0,0,0,0,0,0,0,0,0,0.00381733,0.0151392,0.0131217,0.0704773,0.000859907,0.00459188,-0.00282149,0.019983,-0.0101098,-0.0727183,-0.0205117,-0.00515229
904,0.000344161,-0.412453,-0.121153,-0.409304,0.0132337,0.0132337,0.0132337,0.0132337,0.0132337,0.0132337,0.0132337,0.0132337,0.0132337,-0.632941,0.755593,-0.0867663,0.989477,-0.412453,-0.121153,-0.409304,0.0485501,-0.0374673,-0.307159,-0.222018,-0.0134856,0.0311303,0.0132337,-7.32615,-3.55149,0.257394,-2.44577,5.44853,-0.00881273,8.03034,-1.48459,-0.717395,2.34426,0.00641669,-0.344859,0.22267,-0.0824423,-7.27618,0.0485501,-0.0374673,-0.307159,-0.222018,-0.0134856,0.0311303,0,0,0,0,0,0,0,0,0,-0.00383361,-0.0268476,0.000562401,0.0330785,4.43067e-05,0.00163686,0.00484331,-0.00427622,-0.0019587,-0.0362382,0.00420553,0.00928381
905,0.000344161,0.11975,-0.0295038,0.430632,0.0282234,0.0282234,0.0282234,0.0282234,0.0282234,0.0282234,0.0282234,0.0282234,0.0282234,0.0753137,-0.726526,-0.0432484,0.731699,0.11975,-0.0295038,0.430632,0.0812337,0.0563819,0.0717888,0.0195709,0.0325468,0.0416365,0.0282234,-10.4256,-8.45586,0.129307,-8.33805,19.5267,-1.13007,3.17386,-11.1905,-0.278159,5.45736,0.328538,-4.29032,2.91018,-0.0527536,0.685826,0.0812337,0.0563819,0.0717888,0.0195709,0.0325468,0.0416365,0,0,0,0,0,0,0,0,0,-0.0197055,-0.0394747,0.00695874,0.445221,-0.00161781,-0.00510184,0.010954,0.0209116,-0.146416,-0.455804,-0.0173007,0.0121914
906,0.000344161,0.110998,0.143347,0.945374,0.0168771,0.0168771,0.0168771,0.0168771,0.0168771,0.0168771,0.0168771,0.0168771,0.0168771,0.404773,-0.66003,0.0551179,0.776221,0.110998,0.143347,0.945374,-0.0815369,-0.065029,0.0456772,0.0515615,0.0070138,0.103339,0.0168771,9.34142,-20.7312,3.37753,-9.34807,29.0378,0.662089,-5.91218,-8.41758,1.43237,14.6785,0.465237,4.31846,-5.47373,0.0964516,0.648344,-0.0815369,-0.065029,0.0456772,0.0515615,0.0070138,0.103339,0,0,0,0,0,0,0,0,0,0.0405464,0.0336722,0.0262877,0.742625,0.00202686,0.00683731,-0.00520758,0.0520581,-0.346293,-0.735548,-0.0473356,-0.0116283
907,0.000344161,-0.161321,-0.0381738,0.215488,0.0118307,0.0118307,0.0118307,0.0118307,0.0118307,0.0118307,0.0118307,0.0118307,0.0118307,-0.443293,0.862387,0.0881693,0.97365,-0.161321,-0.0381738,0.215488,-0.124809,-0.0296757,0.0258656,0.0973399,0.0133102,0.0121036,0.0118307,10.0934,18.8129,-0.467952,0.175609,-2.96904,0.205984,0.0345213,-15.6825,-0.0918891,1.38355,0.0194488,-0.195795,-1.52098,0.00504074,-0.0542143,-0.124809,-0.0296757,0.0258656,0.0973399,0.0133102,0.0121036,0,0,0,0,0,0,0,0,0,0.0086038,0.0383147,-0.00159118,0.100945,-0.00208733,-0.0033851,-0.0115011,-0.0200494,-0.0130761,-0.0986269,0.020377,-0.0114426
908,0.000344161,-0.0434317,0.0011768,0.0620313,0.089786,0.089786,0.089786,0.089786,0.089786,0.089786,0.089786,0.089786,0.089786,-0.53379,-0.633027,-0.010214,0.828106,-0.0434317,0.0011768,0.0620313,0.0407644,-0.00945489,0.00333881,-0.00333519,-0.0102275,0.00432602,0.089786,-0.904206,-0.920899,0.106814,0.518259,0.918021,0.135157,0.596341,0.0463099,-0.016461,-0.0628444,-0.256307,-0.886498,-0.456591,-0.00309301,0.228125,0.0407644,-0.00945489,0.00333881,-0.00333519,-0.0102275,0.00432602,0,0,0,0,0,0,0,0,0,-0.00124215,-0.00329951,0.000797147,0.0655831,-0.000341022,0.000176443,0.000918717,-0.00517341,-0.00666602,-0.0641981,0.00250807,0.00102386
909,0.000344161,0.00212908,-0.0212607,0.469284,0.0440388,0.0440388,0.0440388,0.0440388,0.0440388,0.0440388,0.0440388,0.0440388,0.0440388,0.873425,-0.955961,-0.0148571,1.29497,0.00212908,-0.0212607,0.469284,-0.053828,-0.0326111,-0.0604172,0.0693788,0.0216846,0.121955,0.0440388,-0.389037,6.63911,-0.0434396,0.39171,-1.04514,-1.41402,-1.98628,-5.5961,-0.00628746,0.153843,-0.136333,-1.12968,-0.524293,0.00673674,2.64668,-0.053828,-0.0326111,-0.0604172,0.0693788,0.0216846,0.121955,0,0,0,0,0,0,0,0,0,-0.0139773,-0.00192462,-0.000304062,0.903607,-0.00298963,-0.000456445,0.000605167,0.124285,-0.713415,-0.918351,-0.125431,0.000933171
910,0.000344161,-0.0150971,-0.019307,0.231569,0.0635033,0.0635033,0.0635033,0.0635033,0.0635033,0.0635033,0.0635033,0.0635033,0.0635033,0.432253,-0.756382,-0.0364967,0.871945,-0.0150971,-0.019307,0.231569,0.0887649,0.00300741,0.0217209,0.0383656,0.00222683,0.0495753,0.0635033,-6.40349,10.2651,-1.09634,0.833153,-5.54114,-0.640511,-2.08657,-4.70885,-0.363998,-2.66931,0.178817,0.750508,1.85546,-0.0333546,1.10449,0.0887649,0.00300741,0.0217209,0.0383656,0.00222683,0.0495753,0,0,0,0,0,0,0,0,0,-0.027358,-0.0239304,-0.00617792,0.735357,-0.00349175,-0.00475545,0.00601507,0.0700868,-0.360867,-0.741545,-0.0682764,0.00772434
911,0.000344161,-0.00357175,-0.0709652,0.198831,0.0834587,0.0834587,0.0834587,0.0834587,0.0834587,0.0834587,0.0834587,0.0834587,0.0834587,0.548224,-0.758082,-0.0165413,0.935688,-0.00357175,-0.0709652,0.198831,0.0689379,0.00532293,-0.0274658,0.033244,-0.0180092,0.0612308,0.0834587,-2.37522,4.84901,-0.460984,0.537105,-1.82991,-0.933907,-1.51772,-3.01552,-0.0987118,-0.683398,-0.00647133,-0.115318,0.217258,-0.0102161,1.43421,0.0689379,0.00532293,-0.0274658,0.033244,-0.0180092,0.0612308,0,0,0,0,0,0,0,0,0,-0.0138324,-0.00885362,-0.00218273,0.803061,-0.00237569,-0.00237388,0.00235043,0.0835291,-0.450909,-0.812675,-0.0837739,0.00293284
912,0.000344161,0.658205,0.492718,4.11537,0.00467721,0.00467721,0.00467721,0.00467721,0.00467721,0.00467721,0.00467721,0.00467721,0.00467721,0.646991,0.473387,-0.0877702,0.806472,0.658205,0.492718,4.11537,-0.0477761,0.242862,0.491035,-0.100038,-0.432007,0.160183,0.00467721,-2.99114,-75.266,2.97708,39.2548,54.3086,0.189327,3.55054,20.2992,-3.00974,-14.2492,-0.284605,-4.60345,-25.4983,-0.0687422,-3.06245,-0.0477761,0.242862,0.491035,-0.100038,-0.432007,0.160183,0,0,0,0,0,0,0,0,0,-0.0814594,-0.00820545,0.0367156,0.911254,0.00567479,-0.00451623,-0.00855975,-0.0629781,-0.557137,-0.90445,0.055812,0.00744634
913,0.000344161,-0.181697,0.170466,2.04068,0.0179948,0.0179948,0.0179948,0.0179948,0.0179948,0.0179948,0.0179948,0.0179948,0.0179948,0.881917,0.237653,0.0820052,0.917051,-0.181697,0.170466,2.04068,-0.0942832,0.0614055,-0.00532532,0.329682,-0.0394464,0.0285714,0.0179948,1.31693,-0.94869,-1.70754,-1.95986,-5.83578,-0.13669,-1.74999,6.96617,-3.76846,10.1776,0.189013,1.2519,-8.38824,0.205359,-1.54259,-0.0942832,0.0614055,-0.00532532,0.329682,-0.0394464,0.0285714,0,0,0,0,0,0,0,0,0,0.080794,0.0084004,-0.0132007,1.00035,-0.00507471,-0.0032607,-0.0149067,-0.0542278,-0.795825,-1.00177,0.0557234,0.0034568
914,0.000344161,-0.0241065,-0.0100185,0.0648515,0.0848944,0.0848944,0.0848944,0.0848944,0.0848944,0.0848944,0.0848944,0.0848944,0.0848944,-0.613975,-0.722139,-0.0151056,0.947986,-0.0241065,-0.0100185,0.0648515,0.0294076,-0.0224394,0.0175767,0.00410759,-0.00842431,0.00481033,0.0848944,-1.2589,-3.44995,0.0198109,0.270657,0.916504,0.29674,-1.04418,2.55756,-0.127715,-0.231703,-0.0562211,-1.67019,-0.0289358,-0.0632783,2.64952,0.0294076,-0.0224394,0.0175767,0.00410759,-0.00842431,0.00481033,0,0,0,0,0,0,0,0,0,-0.0012367,-0.00451872,0.000244658,0.0433889,-0.000422517,-0.000270943,0.00101069,0.0027493,-0.00236587,-0.0402457,-0.00339576,0.00133639
915,0.000344161,-0.543123,-1.17767,2.74169,0.0148838,0.0148838,0.0148838,0.0148838,0.0148838,0.0148838,0.0148838,0.0148838,0.0148838,0.729894,-0.381001,-0.0800804,0.827237,-0.543123,-1.17767,2.74169,-0.0059827,0.0706385,0.231438,0.236048,0.177728,-0.0188683,0.0148838,-1.52981,-34.5992,-1.58514,-13.0453,20.9635,0.245265,-5.09115,14.1788,-1.35195,-13.8188,0.551253,4.30638,28.0418,-0.0992777,-1.95692,-0.0059827,0.0706385,0.231438,0.236048,0.177728,-0.0188683,0,0,0,0,0,0,0,0,0,-0.076987,-0.00448299,-0.0236479,0.950644,-0.00704374,0.00850286,-0.00238355,0.0673034,-0.638484,-0.945877,-0.0600136,0.00260524
916,0.000344161,-0.98682,0.621153,8.55458,0.00345003,0.00345003,0.00345003,0.00345003,0.00345003,0.00345003,0.00345003,0.00345003,0.00345003,0.822705,0.513583,0.09655,0.974645,-0.98682,0.621153,8.55458,0.174848,-0.000783682,-0.0969696,-0.0503945,-0.0356646,0.142154,0.00345003,4.39426,-19.8573,-2.70994,9.07561,2.61972,-0.0684105,-0.0113028,18.2244,-1.05513,4.25492,0.0539598,-0.00786105,-13.9517,0.113117,-8.53541,0.174848,-0.000783682,-0.0969696,-0.0503945,-0.0356646,0.142154,0,0,0,0,0,0,0,0,0,0.0900538,0.0185546,-0.0150887,0.946782,-0.00896704,-0.0120185,-0.00981862,-0.0894762,-0.717325,-0.948436,0.0896592,-0.00301464
917,0.000344161,0.0402784,-0.0213962,0.713297,0.0252883,0.0252883,0.0252883,0.0252883,0.0252883,0.0252883,0.0252883,0.0252883,0.0252883,0.797328,0.974712,-0.0594836,1.26069,0.0402784,-0.0213962,0.713297,0.157935,-0.0471656,-0.0298767,0.00497711,-0.0124636,0.0454955,0.0252883,-4.02853,21.0294,0.122432,-0.359546,-5.17247,-0.779334,-1.11889,-15.8972,0.00609203,-0.453935,0.0671598,-0.256982,0.834877,-0.0719959,0.662571,0.157935,-0.0471656,-0.0298767,0.00497711,-0.0124636,0.0454955,0,0,0,0,0,0,0,0,0,-0.0538179,-0.0148691,0.000730368,0.893889,0.00668376,2.22963e-05,0.00453923,-0.122085,-0.644482,-0.901981,0.122632,0.00435138
918,0.000344161,0.107966,-0.233431,1.02193,0.0377323,0.0377323,0.0377323,0.0377323,0.0377323,0.0377323,0.0377323,0.0377323,0.0377323,0.839087,0.288427,-0.0622677,0.889457,0.107966,-0.233431,1.02193,0.0875214,-0.0717193,-0.0159836,0.0574613,0.0203485,0.0175517,0.0377323,-1.20791,-2.95032,1.25431,7.81094,6.36952,-0.148625,-5.14316,-3.52717,1.9799,-6.67067,-0.0142558,3.60609,-0.906839,-0.108269,0.515145,0.0875214,-0.0717193,-0.0159836,0.0574613,0.0203485,0.0175517,0,0,0,0,0,0,0,0,0,-0.0624149,-0.00655534,0.0121108,0.985561,0.00309049,-0.000284946,0.00923346,-0.0597676,-0.750357,-0.987207,0.0598285,-0.00140696
919,0.000344161,-0.00794268,-0.025724,0.0636615,0.0884782,0.0884782,0.0884782,0.0884782,0.0884782,0.0884782,0.0884782,0.0884782,0.0884782,-0.0586783,0.880617,0.0115218,0.882645,-0.00794268,-0.025724,0.0636615,0.0265158,-0.00687239,0.0431976,0.00682715,0.00651741,0.00509268,0.0884782,2.234,1.84371,-0.117547,-0.343766,-0.0964214,0.800022,-2.28961,-1.73935,-2.87052e-05,-0.108968,-0.147488,1.72738,0.478458,0.00562912,0.498569,0.0265158,-0.00687239,0.0431976,0.00682715,0.00651741,0.00509268,0,0,0,0,0,0,0,0,0,0.00324893,0.00867408,-0.000225259,0.339857,-0.000856021,-0.00101893,-0.00259451,-0.0429859,-0.0901042,-0.331425,0.0415762,-0.0025749
920,0.000344161,-0.990761,-0.758023,7.47147,0.00188779,0.00188779,0.00188779,0.00188779,0.00188779,0.00188779,0.00188779,0.00188779,0.00188779,0.394292,-0.85593,0.0981122,0.947475,-0.990761,-0.758023,7.47147,0.447494,-0.0219253,-0.0265884,0.12288,0.0294228,0.040422,0.00188779,17.622,-22.7897,1.96153,-0.450016,9.85616,-0.0292161,-0.0699377,13.9243,0.306793,4.90202,0.00552151,0.0570794,-3.69398,0.042462,-7.45861,0.447494,-0.0219253,-0.0265884,0.12288,0.0294228,0.040422,0,0,0,0,0,0,0,0,0,0.0678889,0.0689065,0.0101095,0.700888,0.00732639,0.00928656,-0.0192924,0.0829524,-0.326847,-0.701446,-0.0826029,-0.0210264
921,0.000344161,0.0610111,-0.0362039,0.0369979,0.054537,0.054537,0.054537,0.054537,0.054537,0.054537,0.054537,0.054537,0.054537,-0.575063,-0.423253,-0.045463,0.715477,0.0610111,-0.0362039,0.0369979,0.00981498,-0.0610842,0.0126944,-0.0205512,-0.0292495,0.00611758,0.054537,-2.08582,1.89714,0.976688,3.77553,0.336981,-0.215245,-1.63534,-2.29514,-0.49158,-1.56172,-0.18526,1.74553,-2.17761,-0.0283671,-0.147189,0.00981498,-0.0610842,0.0126944,-0.0205512,-0.0292495,0.00611758,0,0,0,0,0,0,0,0,0,-0.00207775,-0.00736806,0.00590232,0.0339265,0.000200054,0.00325372,0.000451333,-0.0125664,-0.00306602,-0.0359521,0.0104213,0.00290074
922,0.000344161,0.0486581,-0.0202665,0.0793619,0.073296,0.073296,0.073296,0.073296,0.073296,0.073296,0.073296,0.073296,0.073296,-0.036978,-0.876359,-0.026704,0.877545,0.0486581,-0.0202665,0.0793619,0.0464078,0.0033443,-0.0159645,0.0156121,-0.0126228,0.0357416,0.073296,-5.37736,-4.06918,-0.323684,-0.841437,0.0906604,0.683303,-2.3694,3.92986,-0.0256059,-0.497293,0.169937,1.82192,1.359,-0.0098982,0.468117,0.0464078,0.0033443,-0.0159645,0.0156121,-0.0126228,0.0357416,0,0,0,0,0,0,0,0,0,-0.0100601,-0.020522,-0.000194911,0.354216,-0.00183395,-0.00300849,0.00608285,0.0452086,-0.0968619,-0.347543,-0.0436354,0.00626203
923,0.000344161,-0.0489025,-0.00652403,0.0830878,0.0503114,0.0503114,0.0503114,0.0503114,0.0503114,0.0503114,0.0503114,0.0503114,0.0503114,-0.368216,0.906441,0.0496886,0.979636,-0.0489025,-0.00652403,0.0830878,0.0268219,0.00299303,0.00281906,0.00873935,-0.00235701,-0.00239515,0.0503114,6.45721,11.3762,-0.293171,-0.154393,-0.277124,0.850415,0.448327,-11.0501,-0.051595,1.02023,0.0597921,-0.587046,-0.859309,0.00977232,0.0556308,0.0268219,0.00299303,0.00281906,0.00873935,-0.00235701,-0.00239515,0,0,0,0,0,0,0,0,0,0.00636088,0.0249795,-0.000447192,0.139424,-0.00179223,-0.00245459,-0.00765492,-0.0293838,-0.0201909,-0.130892,0.0299582,-0.00740375
924,0.000344161,0.0657043,-0.0456303,-0.0207295,0.0230127,0.0230127,0.0230127,0.0230127,0.0230127,0.0230127,0.0230127,0.0230127,0.0230127,-0.559024,-0.964324,-0.0769873,1.1173,0.0657043,-0.0456303,-0.0207295,0.105871,-0.118248,0.0197778,0.0142926,0.00456762,0.00465846,0.0230127,-7.02947,-15.951,-0.298673,0.259222,-7.37419,0.643548,0.00139526,23.2595,-0.0181944,-0.695371,0.0108254,0.155103,0.481779,-0.00539621,-0.135768,0.105871,-0.118248,0.0197778,0.0142926,0.00456762,0.00465846,0,0,0,0,0,0,0,0,0,-0.00508462,-0.0266239,0.00192159,0.0523828,-0.00236077,-0.0060908,0.00797462,0.0253256,-0.0020465,-0.0457496,-0.0251716,0.00799044
925,0.000344161,-0.117479,-0.00540209,0.530786,0.0621222,0.0621222,0.0621222,0.0621222,0.0621222,0.0621222,0.0621222,0.0621222,0.0621222,0.880739,0.335484,0.0378778,0.943231,-0.117479,-0.00540209,0.530786,0.00425266,0.0214931,0.0337753,0.13362,-0.0888138,0.0551698,0.0621222,0.762672,-5.83846,-0.897801,1.2595,-1.08876,-0.685028,-4.80998,7.0447,-1.21837,3.50655,0.670519,2.02884,-4.76064,0.162695,2.25035,0.00425266,0.0214931,0.0337753,0.13362,-0.0888138,0.0551698,0,0,0,0,0,0,0,0,0,0.0360849,0.00394997,-0.00635283,0.981127,-0.00328658,-0.00241025,-0.00530842,-0.0691585,-0.788319,-0.98764,0.0749756,0.00120467
926,0.000344161,-2.10693,2.9358,5.58634,0.000848304,0.000848304,0.000848304,0.000848304,0.000848304,0.000848304,0.000848304,0.000848304,0.000848304,0.939914,0.76973,-0.0991517,1.21891,-2.10693,2.9358,5.58634,0.276914,0.441316,0.00875092,-0.193137,0.00837231,-0.154086,0.000848304,-2.04809,22.2222,0.637247,-6.19856,-2.89069,-0.0103644,-0.00711809,-17.2246,0.69102,-3.68206,-0.0022353,-0.022468,6.94482,-0.0379198,-5.55676,0.276914,0.441316,0.00875092,-0.193137,0.00837231,-0.154086,0,0,0,0,0,0,0,0,0,-0.0927519,-0.00716517,0.00880464,0.93533,0.0108189,0.00198098,0.00418015,-0.120111,-0.800253,-0.935346,0.120173,0.000730704
927,0.000344161,0.0627699,0.0809987,0.00535992,0.0305736,0.0305736,0.0305736,0.0305736,0.0305736,0.0305736,0.0305736,0.0305736,0.0305736,-0.555902,0.345906,-0.0694264,0.658405,0.0627699,0.0809987,0.00535992,-0.03708,-0.031006,0.0233579,-0.0261897,0.0610543,0.00963128,0.0305736,-1.80895,10.9571,-1.4166,-1.03238,-4.95969,-0.197183,-1.78159,-6.06021,-1.02165,3.3125,-0.0952761,2.19331,-2.36113,-0.00679662,-0.417082,-0.03708,-0.031006,0.0233579,-0.0261897,0.0610543,0.00963128,0,0,0,0,0,0,0,0,0,-0.00234435,-0.00589436,-0.0105228,0.0269638,-0.00128725,-0.00395326,-0.00190337,0.0145397,-0.00285927,-0.0287021,-0.014882,0.00334998
928,0.000344161,0.0523453,0.147243,0.634619,0.0290353,0.0290353,0.0290353,0.0290353,0.0290353,0.0290353,0.0290353,0.0290353,0.0290353,0.608152,0.861984,0.0709647,1.05731,0.0523453,0.147243,0.634619,-0.0171692,0.0158108,0.070755,0.0391707,-0.00239086,0.0261552,0.0290353,8.941,-21.4325,-1.09886,1.45567,6.30835,-0.538732,-0.775293,15.0718,0.0923293,-1.18553,0.0230342,-0.0772115,-0.417377,0.0942082,0.217885,-0.0171692,0.0158108,0.070755,0.0391707,-0.00239086,0.0261552,0,0,0,0,0,0,0,0,0,0.0577862,0.0340318,-0.00513413,0.829031,-0.00770137,-0.00569635,-0.00992983,-0.101357,-0.492673,-0.83371,0.101564,-0.00998552
929,0.000344161,-0.0279455,-0.046919,0.208665,0.04242,0.04242,0.04242,0.04242,0.04242,0.04242,0.04242,0.04242,0.04242,0.0877982,0.95758,-0.0373131,0.96232,-0.0279455,-0.046919,0.208665,-0.0462059,-0.0281529,0.00723267,-0.00564301,0.0119042,0.0113108,0.04242,-7.86447,-1.39973,0.309126,0.175945,-6.47502,0.878967,-3.39104,7.90269,-0.0171377,0.811169,-0.0891578,2.68032,-0.940195,-0.019547,0.502054,-0.0462059,-0.0281529,0.00723267,-0.00564301,0.0119042,0.0113108,0,0,0,0,0,0,0,0,0,-0.0176566,-0.0303899,-0.000841531,0.453809,0.00242857,0.00365127,0.00904959,-0.0747311,-0.142626,-0.444947,0.0739586,0.00912231
930,0.000344161,-0.0690916,0.0109311,0.0696175,0.0867221,0.0867221,0.0867221,0.0867221,0.0867221,0.0867221,0.0867221,0.0867221,0.0867221,-0.283507,0.905234,-0.0132779,0.948684,-0.0690916,0.0109311,0.0696175,-0.00454816,-0.023454,-0.00186539,0.00387564,0.00222945,0.00334829,0.0867221,-2.00864,-2.95948,0.0752507,0.150891,0.0355223,1.13081,0.280226,2.99305,0.0197739,-0.359353,0.0862682,-0.583104,0.197531,-0.000301827,0.23326,-0.00454816,-0.023454,-0.00186539,0.00387564,0.00222945,0.00334829,0,0,0,0,0,0,0,0,0,-0.00314301,-0.00777384,-0.000127099,0.187508,9.43597e-05,0.000645066,0.00241036,-0.0331401,-0.0330094,-0.176219,0.034025,0.00230734
931,0.000344161,-0.0194759,0.0232149,0.0957706,0.0351647,0.0351647,0.0351647,0.0351647,0.0351647,0.0351647,0.0351647,0.0351647,0.0351647,-0.262835,-0.942567,0.0648353,0.980673,-0.0194759,0.0232149,0.0957706,0.018007,-0.0655553,-0.0307903,0.0117375,0.00608206,0.0144091,0.0351647,10.0453,15.1414,0.427336,0.615174,3.99361,0.832897,0.191073,-19.1156,-0.0433381,-1.32247,-0.0364587,-0.310026,0.684083,0.0139902,0.0231827,0.018007,-0.0655553,-0.0307903,0.0117375,0.00608206,0.0144091,0,0,0,0,0,0,0,0,0,0.0121219,0.0387087,-0.000286151,0.193247,0.00223061,0.00390396,-0.0117658,0.0424611,-0.0350826,-0.185226,-0.0427649,-0.0114658
932,0.000344161,-0.107268,-0.0569499,0.0393343,0.0635227,0.0635227,0.0635227,0.0635227,0.0635227,0.0635227,0.0635227,0.0635227,0.0635227,-0.104715,0.728147,-0.0244141,0.736043,-0.107268,-0.0569499,0.0393343,-0.0474073,-0.0492819,0.0640831,-0.000367761,0.0233401,0.0101564,0.0635227,-4.6131,-6.9478,-0.360016,-0.69969,10.7338,-0.676706,-7.79283,-3.67876,-0.0966675,3.34406,-0.46914,6.9998,-2.58742,-0.023036,0.753686,-0.0474073,-0.0492819,0.0640831,-0.000367761,0.0233401,0.0101564,0,0,0,0,0,0,0,0,0,-0.00789744,-0.0177982,-0.00550472,0.297299,-0.000230068,0.00141174,0.00501915,-0.00523388,-0.0787806,-0.303425,0.000775885,0.00543993
933,0.000344161,-0.0015986,-0.0226234,0.210433,0.0951994,0.0951994,0.0951994,0.0951994,0.0951994,0.0951994,0.0951994,0.0951994,0.0951994,0.67958,-0.881822,-0.00480061,1.11331,-0.0015986,-0.0226234,0.210433,0.0281937,-0.0132022,0.031105,0.0364261,0.00407028,0.0944358,0.0951994,-0.479035,1.84161,-0.0821181,0.116766,-0.531972,-1.14846,-1.56033,-1.30804,-0.010124,-0.122232,-0.0695876,-0.412187,0.0280886,0.00820727,1.76209,0.0281937,-0.0132022,0.031105,0.0364261,0.00407028,0.0944358,0,0,0,0,0,0,0,0,0,-0.00466576,-0.00188279,-0.000156284,0.85263,-0.00159472,-0.000796919,0.000502928,0.111594,-0.548858,-0.863804,-0.112249,0.000884634
934,0.000344161,-0.271101,0.0241219,0.392963,0.0154171,0.0154171,0.0154171,0.0154171,0.0154171,0.0154171,0.0154171,0.0154171,0.0154171,0.0573823,-0.974257,0.0845829,0.979604,-0.271101,0.0241219,0.392963,0.069737,0.149364,0.0238724,0.045547,-0.0139656,0.0435033,0.0154171,17.7577,5.98144,0.470892,0.146353,18.5851,0.380156,-1.05759,-24.2954,0.00903346,0.444627,-0.0036524,0.80765,-0.615102,0.0300876,-0.14302,0.069737,0.149364,0.0238724,0.045547,-0.0139656,0.0435033,0,0,0,0,0,0,0,0,0,0.0354088,0.0684192,-0.00194899,0.42027,0.00586995,0.00815155,-0.0204451,0.0769519,-0.127765,-0.41623,-0.0771281,-0.0203501
935,0.000344161,0.00937319,-0.144455,0.00305796,0.0335341,0.0335341,0.0335341,0.0335341,0.0335341,0.0335341,0.0335341,0.0335341,0.0335341,-0.615417,0.748126,-0.0664659,0.971004,0.00937319,-0.144455,0.00305796,0.0486366,-0.0269175,0.0370269,-0.0621649,-0.00932562,-0.0677426,0.0335341,-5.5534,-8.87947,0.116357,-1.70572,4.45927,0.117701,3.30616,4.41083,-0.545138,1.77371,0.0245501,-0.875007,0.0764615,-0.0913214,-2.43422,0.0486366,-0.0269175,0.0370269,-0.0621649,-0.00932562,-0.0677426,0,0,0,0,0,0,0,0,0,-0.00346584,-0.0202879,1.70454e-05,0.042426,-5.36088e-05,0.000877352,0.0041994,-0.00416278,-0.00251009,-0.0408788,0.00431503,0.00644059
936,0.000344161,-0.283099,0.00474715,1.36301,0.00261768,0.00261768,0.00261768,0.00261768,0.00261768,0.00261768,0.00261768,0.00261768,0.00261768,-0.387319,-0.756942,0.0973823,0.855839,-0.283099,0.00474715,1.36301,-0.0453068,-0.113144,-0.048358,0.210344,-0.0170435,0.0073781,0.00261768,11.87,21.8285,-0.188384,-0.958971,-9.91671,0.0316507,-0.0414167,-11.6287,-0.603494,-2.84518,-0.00746441,-0.018635,3.79941,0.0100077,-1.30296,-0.0453068,-0.113144,-0.048358,0.210344,-0.0170435,0.0073781,0,0,0,0,0,0,0,0,0,0.0119288,0.0459132,-0.0021871,0.124927,0.000189191,-0.00082818,-0.0151761,0.00741692,-0.0206786,-0.125094,-0.007662,-0.0131234
937,0.000344161,-0.0739998,-0.0225835,0.0294103,0.0928926,0.0928926,0.0928926,0.0928926,0.0928926,0.0928926,0.0928926,0.0928926,0.0928926,-0.489576,-0.767636,-0.00710737,0.910495,-0.0739998,-0.0225835,0.0294103,0.055893,-0.00637501,0.0143585,-0.00034903,-0.00402796,0.00686517,0.0928926,-0.779652,-1.00045,0.00163704,0.0467407,0.533195,0.519012,1.02952,0.541256,0.00572425,0.143217,-0.138421,-1.11888,-0.167375,0.00256012,0.059948,0.055893,-0.00637501,0.0143585,-0.00034903,-0.00402796,0.00686517,0,0,0,0,0,0,0,0,0,-0.00121095,-0.00280077,0.000278285,0.0864004,-0.000466028,-0.000325665,0.000844905,0.00736859,-0.00953923,-0.0810667,-0.00879308,0.000865156
938,0.000344161,-0.0907693,-0.0260095,0.274576,0.0779161,0.0779161,0.0779161,0.0779161,0.0779161,0.0779161,0.0779161,0.0779161,0.0779161,0.788099,-0.791707,0.0220839,1.11731,-0.0907693,-0.0260095,0.274576,0.0460247,-0.0116762,0.0171661,0.0602335,0.021925,0.093289,0.0779161,1.52303,-7.31657,0.32172,-0.575541,1.32847,-1.2606,-1.33473,6.07887,-0.0270484,-0.304822,-0.224291,-1.08412,0.906372,0.0761315,2.14428,0.0460247,-0.0116762,0.0171661,0.0602335,0.021925,0.093289,0,0,0,0,0,0,0,0,0,0.019207,0.00580107,0.00193752,0.895291,0.0013095,0.00116291,-0.0018783,0.109996,-0.655178,-0.907725,-0.11202,-0.00119713
939,0.000344161,-0.0344204,-0.0268626,0.059322,0.0843297,0.0843297,0.0843297,0.0843297,0.0843297,0.0843297,0.0843297,0.0843297,0.0843297,-0.0782292,0.793012,0.0156703,0.797015,-0.0344204,-0.0268626,0.059322,0.0229788,0.00135782,0.0439911,-0.00545722,0.00285852,-0.00171649,0.0843297,3.04882,3.1321,-0.0570258,-0.62949,-2.21439,0.277446,-3.10557,-0.883286,0.0144925,-0.522968,-0.273312,2.42817,1.17932,0.00845745,0.618073,0.0229788,0.00135782,0.0439911,-0.00545722,0.00285852,-0.00171649,0,0,0,0,0,0,0,0,0,0.00442636,0.0117964,0.000639135,0.324543,-0.000699596,-0.00119581,-0.00351741,-0.0214377,-0.0863786,-0.321329,0.0187331,-0.00352889
940,0.000344161,0.00253218,0.0308661,0.133903,0.0518772,0.0518772,0.0518772,0.0518772,0.0518772,0.0518772,0.0518772,0.0518772,0.0518772,0.212725,-0.948123,-0.0112723,0.971759,0.00253218,0.0308661,0.133903,0.0556344,-0.00316378,-0.0457382,0.00399265,-0.00225735,0.0514648,0.0518772,-2.37268,0.973327,-0.113378,0.050998,-1.92986,0.394298,-4.45175,0.954001,-0.0142023,-0.515629,0.159265,3.48941,0.433765,-0.00591479,0.828437,0.0556344,-0.00316378,-0.0457382,0.00399265,-0.00225735,0.0514648,0,0,0,0,0,0,0,0,0,-0.00685447,-0.0089525,0.000590572,0.553655,-0.00176435,-0.00175599,0.00258169,0.0871028,-0.204089,-0.550169,-0.0855327,0.00286049
941,0.000344161,-0.125397,0.0334371,0.523995,0.0268165,0.0268165,0.0268165,0.0268165,0.0268165,0.0268165,0.0268165,0.0268165,0.0268165,0.438327,-0.922126,0.0731835,1.02362,-0.125397,0.0334371,0.523995,-0.0235865,0.0241144,-0.0185394,0.0338056,0.0247097,0.0480862,0.0268165,12.6969,-17.3089,0.907021,-0.915947,9.11882,-0.283697,-1.29375,8.31546,0.0834594,2.17212,0.0319075,0.724927,-1.28961,0.073096,0.0448254,-0.0235865,0.0241144,-0.0185394,0.0338056,0.0247097,0.0480862,0,0,0,0,0,0,0,0,0,0.0522497,0.0484683,0.00395598,0.723463,0.00646449,0.00535537,-0.0143118,0.100947,-0.351787,-0.726485,-0.100381,-0.0142922
942,0.000344161,2.62787,0.726686,0.0926089,0.00199267,0.00199267,0.00199267,0.00199267,0.00199267,0.00199267,0.00199267,0.00199267,0.00199267,-0.512432,0.294064,-0.0977238,0.598841,2.62787,0.726686,0.0926089,-0.0501663,-0.585346,-0.0488586,-0.515884,-0.346164,0.163174,0.00199267,-0.368813,43.205,-0.765492,74.2561,-39.5468,-0.0138938,1.3394,-6.28607,-1.59274,-59.8939,-0.0351329,-2.44817,-15.0889,0.00170069,1.01616,-0.0501663,-0.585346,-0.0488586,-0.515884,-0.346164,0.163174,0,0,0,0,0,0,0,0,0,-0.00248333,0.000631334,-0.016903,0.022886,-0.00157438,0.00339465,-0.00781691,0.0181993,-0.0031508,-0.0235136,-0.0220122,0.0035506
943,0.000344161,0.233876,0.118798,-0.0180028,0.0134537,0.0134537,0.0134537,0.0134537,0.0134537,0.0134537,0.0134537,0.0134537,0.0134537,-0.545209,-0.787329,-0.0865463,0.961576,0.233876,0.118798,-0.0180028,0.102286,-0.0221691,-0.00897789,-0.133314,0.0329745,0.0614994,0.0134537,-8.03808,-13.0303,-0.256671,2.09964,5.4735,0.181427,-0.00558147,7.32289,-0.152624,-0.633791,-0.0193439,-0.359371,-1.58464,-0.00278207,0.382955,0.102286,-0.0221691,-0.00897789,-0.133314,0.0329745,0.0614994,0,0,0,0,0,0,0,0,0,-0.00621827,-0.0302601,-0.000596818,0.0629513,-0.00117041,-0.00219158,0.00798917,0.00924238,-0.00583984,-0.0612268,-0.00910608,0.00971245
944,0.000344161,-0.139101,0.116834,1.3629,0.0355182,0.0355182,0.0355182,0.0355182,0.0355182,0.0355182,0.0355182,0.0355182,0.0355182,0.964482,0.615088,-0.0279567,1.14426,-0.139101,0.116834,1.3629,0.0347123,0.0291784,0.0257111,0.031377,0.0754175,0.0500405,0.0355182,-0.0277384,3.35842,0.159173,-6.91362,-0.381211,-1.25535,3.818,-2.83811,0.666537,-2.38272,1.35408,-2.6819,9.17951,0.181167,-2.499,0.0347123,0.0291784,0.0257111,0.031377,0.0754175,0.0500405,0,0,0,0,0,0,0,0,0,-0.0272186,-0.00104524,0.00434735,0.9423,0.00219618,-0.00246383,0.00240946,-0.10369,-0.841912,-0.954596,0.117985,7.59293e-05
945,0.000344161,-0.0637884,-0.178048,0.903685,0.0479805,0.0479805,0.0479805,0.0479805,0.0479805,0.0479805,0.0479805,0.0479805,0.0479805,0.869672,-0.0702752,0.0188343,0.87271,-0.0637884,-0.178048,0.903685,0.0558454,-0.0546556,0.00408936,-0.0124735,0.0112332,0.111948,0.0479805,0.02815,1.00168,0.0594382,1.99706,-1.13369,-0.054842,-2.64614,0.195803,-0.909478,-1.10747,0.12767,-1.09883,-0.71154,0.131711,2.84129,0.0558454,-0.0546556,0.00408936,-0.0124735,0.0112332,0.111948,0,0,0,0,0,0,0,0,0,0.018186,0.0011057,0.000297449,1.01818,-0.000607671,-0.000249622,-0.00392403,0.0194393,-0.789518,-1.01869,-0.0180503,0.00190402
946,0.000344161,0.00335354,-0.0552093,-0.0562276,0.052589,0.052589,0.052589,0.052589,0.052589,0.052589,0.052589,0.052589,0.052589,-0.602875,0.191279,-0.0166393,0.632711,0.00335354,-0.0552093,-0.0562276,0.0190791,0.000585452,0.018662,-0.0138731,0.0892343,0.00642967,0.052589,-0.103122,1.43948,-0.127662,0.641674,-1.12428,-0.148822,-1.09958,-0.318552,-0.170727,-0.472956,-0.0695301,0.953795,-0.113509,-0.00945953,0.202013,0.0190791,0.000585452,0.018662,-0.0138731,0.0892343,0.00642967,0,0,0,0,0,0,0,0,0,-0.000672445,-0.000106745,-0.00105557,0.00707051,-0.000438416,-0.000215196,-0.000609532,0.00608096,-0.000363,-0.00837211,-0.00588392,0.000298319
947,0.000344161,0.586253,-0.107304,1.65891,0.025942,0.025942,0.025942,0.025942,0.025942,0.025942,0.025942,0.025942,0.025942,0.851481,0.0688915,-0.074058,0.857468,0.586253,-0.107304,1.65891,-0.0100446,-0.0442187,-0.00389862,0.518685,-0.0422641,-0.0476437,0.025942,-0.0543984,-3.9671,0.0748082,12.7543,2.91415,-0.0119289,0.389393,0.466696,4.57119,-7.43792,-0.119695,-1.57049,-5.2091,-0.090902,-0.477814,-0.0100446,-0.0442187,-0.00389862,0.518685,-0.0422641,-0.0476437,0,0,0,0,0,0,0,0,0,-0.0764474,-0.00596093,0.00443173,1.01775,0.000404587,-0.00412583,0.0198107,-0.0153985,-0.770973,-1.01791,0.0137789,-0.00633144
948,0.000344161,-0.112626,-0.0631723,0.156079,0.036715,0.036715,0.036715,0.036715,0.036715,0.036715,0.036715,0.036715,0.036715,-0.104068,0.700198,-0.0242332,0.708304,-0.112626,-0.0631723,0.156079,-0.0475395,-0.0735712,0.102848,-0.0439181,0.0167381,0.00829792,0.036715,-4.45061,-7.85913,-0.729145,-2.42185,15.9133,-1.62392,-10.8213,-7.94158,-0.220409,5.6415,-0.707002,9.74079,-3.15647,-0.0270912,0.924459,-0.0475395,-0.0735712,0.102848,-0.0439181,0.0167381,0.00829792,0,0,0,0,0,0,0,0,0,-0.00765207,-0.0169739,-0.00937134,0.289877,-0.000359604,0.00134419,0.00419522,0.000121456,-0.0788908,-0.305088,-0.0070241,0.00542288
949,0.000344161,-0.0205855,-0.00486577,0.322156,0.0877041,0.0877041,0.0877041,0.0877041,0.0877041,0.0877041,0.0877041,0.0877041,0.0877041,0.83279,-0.466495,0.0122959,0.954624,-0.0205855,-0.00486577,0.322156,0.034999,-0.0125658,0.0355606,0.0506599,0.0744572,0.0889727,0.0877041,0.464161,-2.27708,0.274387,-0.327148,-0.0260262,-0.936756,-4.56903,2.3237,-0.166677,-0.533714,-0.552282,1.2644,0.865728,0.063778,2.98247,0.034999,-0.0125658,0.0355606,0.0506599,0.0744572,0.0889727,0,0,0,0,0,0,0,0,0,0.0110529,0.00187746,0.00171738,0.948915,-9.22624e-05,0.000900837,-0.00119842,0.0846481,-0.729913,-0.957927,-0.0894263,0.000145415
950,0.000344161,-0.104734,-0.0613298,0.49697,0.0477047,0.0477047,0.0477047,0.0477047,0.0477047,0.0477047,0.0477047,0.0477047,0.0477047,0.94312,-0.92661,-0.0522953,1.32318,-0.104734,-0.0613298,0.49697,-0.0647034,0.00961059,0.107964,0.0860086,-0.030488,0.108681,0.0477047,-0.581403,21.0574,-0.139713,2.6233,-1.83656,-1.08406,-3.31196,-19.1161,0.0877589,1.6269,-0.208458,-1.74564,-4.18886,-0.00902395,4.56063,-0.0647034,0.00961059,0.107964,0.0860086,-0.030488,0.108681,0,0,0,0,0,0,0,0,0,-0.0482712,-0.00280051,-0.0020548,0.916235,-0.00760099,0.000753775,0.00129886,0.123621,-0.78145,-0.925996,-0.12601,0.000928301
951,0.000344161,-0.00604963,-0.0353588,0.0152013,0.0453715,0.0453715,0.0453715,0.0453715,0.0453715,0.0453715,0.0453715,0.0453715,0.0453715,-0.32346,0.737771,-0.0546285,0.807414,-0.00604963,-0.0353588,0.0152013,-0.0107985,-0.00462334,0.0326958,0.0081296,0.0322281,-0.00422096,0.0453715,-7.40277,-12.9223,-0.409109,-0.859446,7.65196,0.337653,-0.726682,5.27641,0.319887,-0.704741,0.107526,0.468368,1.59955,-0.00881008,0.243113,-0.0107985,-0.00462334,0.0326958,0.0081296,0.0322281,-0.00422096,0,0,0,0,0,0,0,0,0,-0.0094663,-0.0288772,-0.00369545,0.161006,-0.000247488,-0.000441877,0.00983075,-0.00182233,-0.0296539,-0.157303,0.00321988,0.00812551
952,0.000344161,0.0813951,0.199903,8.29713,0.00291014,0.00291014,0.00291014,0.00291014,0.00291014,0.00291014,0.00291014,0.00291014,0.00291014,0.769672,0.99709,0.0535932,1.26074,0.0813951,0.199903,8.29713,-0.0425899,0.0307555,0.0961075,0.0606499,0.00911903,0.0394801,0.00291014,4.1027,-18.9431,-0.0114982,0.0174073,4.4586,-0.92683,-1.1626,14.4031,0.00470617,-0.00688218,0.0340195,-7.61887,-0.210429,0.132156,0.484337,-0.0425899,0.0307555,0.0961075,0.0606499,0.00911903,0.0394801,0,0,0,0,0,0,0,0,0,0.0465388,0.0153424,0.000707511,0.885526,-0.00719033,-0.000514938,-0.00463141,-0.123811,-0.616836,-0.893833,0.124243,-0.00410001
953,0.000344161,-0.051309,-0.0208611,0.0436107,0.0859352,0.0859352,0.0859352,0.0859352,0.0859352,0.0859352,0.0859352,0.0859352,0.0859352,-0.456319,0.708708,-0.0140648,0.843025,-0.051309,-0.0208611,0.0436107,0.00674355,-0.00919063,0.0281057,0.000392646,0.0111595,0.000913203,0.0859352,-1.51196,-2.24407,-0.104754,-0.507957,1.50408,0.379071,0.562697,0.791297,0.0129498,-0.0222532,0.21214,-0.685075,0.551071,0.000444636,0.0787669,0.00674355,-0.00919063,0.0281057,0.000392646,0.0111595,0.000913203,0,0,0,0,0,0,0,0,0,-0.00200696,-0.00580627,-0.000781222,0.0987153,-0.000347549,-0.000358228,0.00178654,0.000338067,-0.0130157,-0.0946435,0.00189493,0.00172662
954,0.000344161,-0.0889397,-0.0784546,1.08693,0.0160811,0.0160811,0.0160811,0.0160811,0.0160811,0.0160811,0.0160811,0.0160811,0.0160811,0.59923,-0.688622,0.0839189,0.916689,-0.0889397,-0.0784546,1.08693,-0.00471842,-0.257873,-0.00441742,-0.0133998,-0.0465136,0.122247,0.0160811,10.0852,-23.6465,2.65474,-4.45939,8.42046,-0.276292,-0.776146,15.315,0.425546,3.61395,-0.0207715,0.203826,0.923894,0.101546,-0.514613,-0.00471842,-0.257873,-0.00441742,-0.0133998,-0.0465136,0.122247,0,0,0,0,0,0,0,0,0,0.0700043,0.0380374,0.0143303,0.843723,0.00569813,0.00963831,-0.0103044,0.0799628,-0.499411,-0.84653,-0.0806357,-0.0112462
955,0.000344161,-0.0873928,-0.0345215,0.0336292,0.0555805,0.0555805,0.0555805,0.0555805,0.0555805,0.0555805,0.0555805,0.0555805,0.0555805,-0.416943,-0.943772,0.0444195,1.03272,-0.0873928,-0.0345215,0.0336292,0.0515719,-0.0148165,-0.0384321,0.012123,-0.00505352,0.0267632,0.0555805,5.26142,9.89406,0.226833,0.094479,2.66013,1.11255,0.391234,-12.4668,-0.0138873,-0.453048,-0.0282648,-0.427067,0.39309,0.00772863,0.00220413,0.0515719,-0.0148165,-0.0384321,0.012123,-0.00505352,0.0267632,0,0,0,0,0,0,0,0,0,0.00453142,0.0203968,-0.000290696,0.114608,0.00100397,0.00241086,-0.00617695,0.0326866,-0.0128569,-0.103867,-0.0330198,-0.00599567
956,0.000344161,0.288026,-0.0234054,0.58447,0.0668234,0.0668234,0.0668234,0.0668234,0.0668234,0.0668234,0.0668234,0.0668234,0.0668234,0.933177,0.651774,0.00275843,1.13826,0.288026,-0.0234054,0.58447,0.0346325,-0.0416464,-0.0508804,0.0331171,-0.0389099,0.0645458,0.0668234,0.0832197,-1.77666,-0.0187734,-0.0936659,0.0016174,-1.39442,1.24734,1.48702,0.0105252,-0.159654,1.03285,-2.37466,0.276726,0.0763187,0.542858,0.0346325,-0.0416464,-0.0508804,0.0331171,-0.0389099,0.0645458,0,0,0,0,0,0,0,0,0,0.00168584,0.000240385,9.31909e-05,0.934125,-0.000942955,-0.00069739,-0.000130664,-0.10583,-0.807825,-0.948578,0.115769,0.000355447
957,0.000344161,-0.0896053,0.0509449,-0.0145062,0.0739433,0.0739433,0.0739433,0.0739433,0.0739433,0.0739433,0.0739433,0.0739433,0.0739433,-0.519756,-0.42811,0.0233627,0.673773,-0.0896053,0.0509449,-0.0145062,0.0541043,-0.00179529,0.00350952,0.0251578,-0.0415434,0.0103769,0.0739433,0.970019,-2.79671,-0.586486,-1.41376,0.469019,-0.447857,-5.57353,2.41729,0.310882,2.06996,0.16045,5.28433,-0.707148,0.00662245,0.303715,0.0541043,-0.00179529,0.00350952,0.0251578,-0.0415434,0.0103769,0,0,0,0,0,0,0,0,0,0.000453532,0.00353158,-0.00433696,0.0429116,-0.000769058,-0.00154585,9.11671e-05,-0.0166145,-0.00538434,-0.047355,0.0178036,-0.00150404
958,0.000344161,2.00483,-1.87638,36.3074,0.000143964,0.000143964,0.000143964,0.000143964,0.000143964,0.000143964,0.000143964,0.000143964,0.000143964,0.638629,-0.930463,0.099856,1.13295,2.00483,-1.87638,36.3074,3.29016,0.0717078,-0.0504227,0.0784756,0.0147705,0.173139,0.000143964,8.66265,-26.334,0.776625,-1.65096,9.61103,-0.00646949,0.00347791,14.7181,-0.00962896,1.23109,-0.000527874,-0.00862751,2.29625,0.0250624,-36.3023,3.29016,0.0717078,-0.0504227,0.0784756,0.0147705,0.173139,0,0,0,0,0,0,0,0,0,0.0828458,0.0456642,0.00403213,0.840517,0.0105166,0.0044512,-0.0137556,0.116112,-0.508996,-0.841086,-0.11597,-0.0131088
959,0.000344161,-0.0523052,-0.0154798,0.0939426,0.0541671,0.0541671,0.0541671,0.0541671,0.0541671,0.0541671,0.0541671,0.0541671,0.0541671,-0.369587,0.919953,-0.0458329,0.992477,-0.0523052,-0.0154798,0.0939426,-0.0344883,-0.0451088,-0.0327749,-0.00290525,0.00590825,0.00223327,0.0541671,-5.97903,-10.1813,0.267243,0.117696,-0.509693,0.964419,0.372119,10.7433,0.0355751,-0.815477,0.0570746,-0.639769,0.71326,-0.0042331,0.173708,-0.0344883,-0.0451088,-0.0327749,-0.00290525,0.00590825,0.00223327,0,0,0,0,0,0,0,0,0,-0.00707794,-0.0231643,-0.000113697,0.138754,0.00108788,0.00233504,0.00706663,-0.0312455,-0.0195706,-0.129437,0.0318753,0.00689329
960,0.000344161,0.19037,-0.285523,0.435128,0.00572883,0.00572883,0.00572883,0.00572883,0.00572883,0.00572883,0.00572883,0.00572883,0.00572883,-0.471444,0.562282,-0.0942712,0.739802,0.19037,-0.285523,0.435128,0.0685277,0.0669755,0.00611496,-0.102638,0.054258,0.0318556,0.00572883,-7.73204,-7.84865,-2.23689,-7.97745,9.3845,0.00416987,-0.578259,-1.72622,-0.0243927,5.57563,0.018638,0.412218,2.68734,-0.0114077,-0.269088,0.0685277,0.0669755,0.00611496,-0.102638,0.054258,0.0318556,0,0,0,0,0,0,0,0,0,-0.00806273,-0.0293521,-0.0139321,0.080074,-0.00178913,-0.00776708,0.00833035,0.0152841,-0.0112098,-0.0799711,-0.0145551,0.00906774
961,0.000344161,-0.145333,0.153121,1.34268,0.0124282,0.0124282,0.0124282,0.0124282,0.0124282,0.0124282,0.0124282,0.0124282,0.0124282,0.460343,0.765845,0.0875718,0.897832,-0.145333,0.153121,1.34268,-0.0853462,0.170341,-0.00483704,0.0191295,0.0167713,0.0775909,0.0124282,14.5889,-24.2461,-2.47379,1.66523,10.3027,-0.191034,-0.485224,14.0887,0.598539,-4.64651,-0.035492,0.156045,2.82816,0.0801942,-1.0135,-0.0853462,0.170341,-0.00483704,0.0191295,0.0167713,0.0775909,0,0,0,0,0,0,0,0,0,0.0652794,0.0548881,-0.0128436,0.757609,-0.00677449,-0.010191,-0.0145413,-0.071163,-0.383297,-0.759567,0.0709758,-0.0168407
962,0.000344161,0.405411,0.0769291,1.92464,0.013278,0.013278,0.013278,0.013278,0.013278,0.013278,0.013278,0.013278,0.013278,0.776473,-0.976394,-0.086722,1.25051,0.405411,0.0769291,1.92464,0.127627,-0.0210391,-0.0721436,-0.0090816,0.0275249,0.161772,0.013278,-6.46678,27.927,-0.181582,0.507561,-7.67433,-0.264163,-0.296056,-20.6581,0.0231041,0.961288,-0.0339655,0.25174,-1.54578,-0.0605682,-1.88032,0.127627,-0.0210391,-0.0721436,-0.0090816,0.0275249,0.161772,0,0,0,0,0,0,0,0,0,-0.0773567,-0.0245143,-0.000479869,0.890369,-0.0119488,-0.00154634,0.00725156,0.125608,-0.623139,-0.893732,-0.125672,0.00768747
963,0.000344161,-0.280608,0.0662904,0.620833,0.0116061,0.0116061,0.0116061,0.0116061,0.0116061,0.0116061,0.0116061,0.0116061,0.0116061,-0.00767822,-0.883079,0.0883939,0.887526,-0.280608,0.0662904,0.620833,-0.0125837,-0.144341,-0.0423393,0.0549264,-0.014751,0.0629673,0.0116061,18.3248,11.4856,1.32139,2.31834,1.99744,0.15413,-0.606015,-13.2024,0.0357568,0.896931,0.0340582,0.450064,-3.28156,0.0289954,-0.464882,-0.0125837,-0.144341,-0.0423393,0.0549264,-0.014751,0.0629673,0,0,0,0,0,0,0,0,0,0.0326146,0.0702207,0.00418708,0.372407,0.00370544,0.00758346,-0.0208868,0.0481652,-0.107908,-0.37129,-0.0479721,-0.0208804
964,0.000344161,0.0538559,0.0664091,0.0377927,0.0658338,0.0658338,0.0658338,0.0658338,0.0658338,0.0658338,0.0658338,0.0658338,0.0658338,-0.64757,0.590594,0.0341662,0.877106,0.0538559,0.0664091,0.0377927,0.0381223,-0.0232252,0.0284467,-0.00828281,-0.00233255,-0.00230885,0.0658338,2.18353,7.41416,0.253496,1.97609,-1.9963,0.0841084,-4.29223,-5.47172,0.422082,-0.139516,0.246712,-1.47615,-1.90298,0.210437,5.73059,0.0381223,-0.0232252,0.0284467,-0.00828281,-0.00233255,-0.00230885,0,0,0,0,0,0,0,0,0,0.000506736,0.0078272,0.00122915,0.0315712,-0.000206018,0.00107356,-0.00121206,0.00334442,-0.00140216,-0.0304457,-0.00090063,-0.00224041
965,0.000344161,-0.0426378,-0.00708091,0.136739,0.0736045,0.0736045,0.0736045,0.0736045,0.0736045,0.0736045,0.0736045,0.0736045,0.0736045,-0.0276612,-0.829895,0.0263955,0.830775,-0.0426378,-0.00708091,0.136739,0.0985594,-0.0220848,-0.00503159,0.0203753,-0.0115399,0.0227759,0.0736045,5.36917,4.12389,0.255857,1.04427,-1.83162,0.399147,-2.67248,-2.24963,0.0547787,0.897315,0.276324,1.97965,-1.9345,0.0186155,0.55609,0.0985594,-0.0220848,-0.00503159,0.0203753,-0.0115399,0.0227759,0,0,0,0,0,0,0,0,0,0.00899651,0.0208953,0.000551789,0.362374,0.000305748,0.00178594,-0.00606763,0.0353644,-0.10192,-0.358433,-0.0327166,-0.00623644
966,0.000344161,0.0127149,-0.0238128,0.0189129,0.0600061,0.0600061,0.0600061,0.0600061,0.0600061,0.0600061,0.0600061,0.0600061,0.0600061,-0.354017,0.615424,-0.0399939,0.711108,0.0127149,-0.0238128,0.0189129,0.0157636,-0.0168809,0.00978565,-0.00898612,0.0193582,0.000464082,0.0600061,-4.16435,-3.02333,-1.08464,-4.51591,7.70091,-0.359234,-8.98689,-4.6903,-0.054328,6.99423,-0.199607,8.73199,-2.45451,-0.0134326,0.235987,0.0157636,-0.0168809,0.00978565,-0.00898612,0.0193582,0.000464082,0,0,0,0,0,0,0,0,0,-0.005803,-0.0158681,-0.00967506,0.130513,-0.00100643,-0.00134015,0.00455827,0.0170173,-0.0241248,-0.134008,-0.0188198,0.00481
967,0.000344161,-0.112051,-0.0086565,0.300404,0.0617312,0.0617312,0.0617312,0.0617312,0.0617312,0.0617312,0.0617312,0.0617312,0.0617312,0.888856,0.864159,0.0382688,1.24028,-0.112051,-0.0086565,0.300404,0.112864,-0.0570577,-0.000991821,0.0342629,-0.0202942,0.0427554,0.0617312,1.17359,-15.736,-0.28523,1.74127,2.02955,-1.20414,-0.306334,13.8185,-0.0742907,0.830954,0.269343,-1.53236,-2.56357,0.130934,1.53829,0.112864,-0.0570577,-0.000991821,0.0342629,-0.0202942,0.0427554,0,0,0,0,0,0,0,0,0,0.0340529,0.00479369,-0.00191653,0.912611,-0.00508972,-0.00150635,-0.00183874,-0.117076,-0.741376,-0.924662,0.119566,-0.000770152
968,0.000344161,0.119033,0.139352,1.0234,0.0369677,0.0369677,0.0369677,0.0369677,0.0369677,0.0369677,0.0369677,0.0369677,0.0369677,0.963032,-0.828673,-0.00603356,1.2705,0.119033,0.139352,1.0234,0.0447296,-0.0354968,-0.113503,0.0584031,-0.024271,0.125262,0.0369677,0.0182652,-0.793105,-0.00600722,0.680681,-0.103365,-1.34853,7.66421,0.777437,0.0773576,0.611445,-0.766515,-3.72632,-1.43148,0.0659182,-4.96129,0.0447296,-0.0354968,-0.113503,0.0584031,-0.024271,0.125262,0,0,0,0,0,0,0,0,0,-0.00607099,-0.000134952,-0.000428177,0.916925,-0.00189976,1.31369e-05,0.000228877,0.11856,-0.812269,-0.931545,-0.126468,0.000505976
969,0.000344161,0.011776,-0.0461066,-0.0673492,0.0205185,0.0205185,0.0205185,0.0205185,0.0205185,0.0205185,0.0205185,0.0205185,0.0205185,-0.598852,0.242663,0.0794815,0.651019,0.011776,-0.0461066,-0.0673492,0.0192381,-0.0349573,0.0312784,-0.0566803,0.0595878,0.0176451,0.0205185,1.04759,-10.3377,1.02205,-0.732154,5.86416,-0.0848753,0.0194106,4.46174,1.10864,-0.0831549,-0.0188409,0.478696,0.861415,0.0012617,-0.430758,0.0192381,-0.0349573,0.0312784,-0.0566803,0.0595878,0.0176451,0,0,0,0,0,0,0,0,0,0.000329852,0.00286757,0.00668134,0.0121115,0.00031296,0.00318958,0.00279324,0.00853616,-0.000840649,-0.0126474,-0.00812869,-0.00237204
970,0.000344161,-0.0622153,0.0742188,0.558368,0.0231401,0.0231401,0.0231401,0.0231401,0.0231401,0.0231401,0.0231401,0.0231401,0.0231401,0.243222,-0.826428,0.07686,0.864898,-0.0622153,0.0742188,0.558368,0.0552609,-0.153333,-0.0135498,0.0319197,0.0210185,0.0395017,0.0231401,16.3351,-9.35567,1.70082,1.56355,4.61976,-0.14081,-1.05941,4.79812,0.64434,5.33578,0.177191,0.746655,-6.97355,0.0602465,-0.245616,0.0552609,-0.153333,-0.0135498,0.0319197,0.0210185,0.0395017,0,0,0,0,0,0,0,0,0,0.044443,0.0621445,0.00787039,0.586598,0.00397613,0.00760449,-0.0164261,0.0609807,-0.230876,-0.588141,-0.0589986,-0.0193086
971,0.000344161,0.00272465,-0.0166192,0.0851067,0.0841106,0.0841106,0.0841106,0.0841106,0.0841106,0.0841106,0.0841106,0.0841106,0.0841106,0.0679743,0.905585,0.0158894,0.908271,0.00272465,-0.0166192,0.0851067,0.0211513,-0.00147144,0.0263176,0.011068,0.00478315,0.0213703,0.0841106,3.3068,0.883763,-0.208785,-0.293072,0.953014,0.596411,-3.50453,-1.8395,0.0308451,-0.666486,-0.243647,2.7617,0.976178,0.012908,0.657716,0.0211513,-0.00147144,0.0263176,0.011068,0.00478315,0.0213703,0,0,0,0,0,0,0,0,0,0.00629741,0.0127119,-0.000431312,0.439268,-0.00133027,-0.00167126,-0.00371829,-0.060605,-0.137213,-0.433041,0.0582164,-0.00375646
972,0.000344161,-0.280239,0.156527,8.70067,0.00171149,0.00171149,0.00171149,0.00171149,0.00171149,0.00171149,0.00171149,0.00171149,0.00171149,0.6768,-0.998289,0.0255933,1.20636,-0.280239,0.156527,8.70067,-0.11128,-0.0219449,0.102951,0.0709117,-0.0440931,0.102261,0.00171149,2.90506,-7.45298,0.00232717,0.013046,2.5469,-0.940413,-2.3686,5.18632,0.00289945,-0.0779057,-0.0297963,-7.91461,-0.0916675,0.0784298,1.58254,-0.11128,-0.0219449,0.102951,0.0709117,-0.0440931,0.102261,0,0,0,0,0,0,0,0,0,0.0211336,0.0104517,-0.000228086,0.849064,0.00216669,3.19086e-05,-0.0031482,0.125699,-0.532614,-0.857439,-0.126438,-0.0026138
973,0.000344161,0.0578632,0.0174131,0.319311,0.0742467,0.0742467,0.0742467,0.0742467,0.0742467,0.0742467,0.0742467,0.0742467,0.0742467,0.867353,-0.383401,-0.0257533,0.948663,0.0578632,0.0174131,0.319311,0.0822202,0.0551661,0.0224533,-0.00481496,0.0704956,0.0996764,0.0742467,-0.687832,6.02297,-0.767375,1.73384,0.337817,-0.791656,-5.00547,-6.41865,0.799078,2.67493,-0.615585,1.84416,-4.42618,-0.0501478,2.842,0.0822202,0.0551661,0.0224533,-0.00481496,0.0704956,0.0996764,0,0,0,0,0,0,0,0,0,-0.0256224,-0.00330288,-0.00540787,0.969393,-0.00311971,-0.00171421,0.00369649,0.0778612,-0.77056,-0.977085,-0.0833121,-2.71788e-05
974,0.000344161,0.0643492,0.0605459,0.368295,0.0466443,0.0466443,0.0466443,0.0466443,0.0466443,0.0466443,0.0466443,0.0466443,0.0466443,0.421494,0.700069,0.0533557,0.818902,0.0643492,0.0605459,0.368295,-0.0114254,0.0140403,0.0639267,0.00801134,-0.00152397,0.0592768,0.0466443,9.08864,-18.0963,-2.18956,4.73907,15.9029,-0.147197,-4.33606,2.12909,0.821591,-8.28101,-0.257567,3.2986,3.48139,0.0790912,0.669168,-0.0114254,0.0140403,0.0639267,0.00801134,-0.00152397,0.0592768,0,0,0,0,0,0,0,0,0,0.0388208,0.0337955,-0.0149182,0.742594,-0.00352822,-0.00683692,-0.00744258,-0.0567599,-0.357741,-0.743427,0.054169,-0.0108988
975,0.000344161,-0.0540266,-0.00878447,-0.0105414,0.0295444,0.0295444,0.0295444,0.0295444,0.0295444,0.0295444,0.0295444,0.0295444,0.0295444,-0.480251,-0.906039,-0.0704556,1.02787,-0.0540266,-0.00878447,-0.0105414,0.0501193,-0.0370572,-0.0101538,-0.0313936,0.0298486,0.00898433,0.0295444,-7.52624,-14.4481,-0.466772,0.24821,-0.297334,0.558241,0.108974,14.7994,0.00153539,0.12788,-0.0145732,-0.24893,-0.367305,-0.00387093,0.150498,0.0501193,-0.0370572,-0.0101538,-0.0313936,0.0298486,0.00898433,0,0,0,0,0,0,0,0,0,-0.00682152,-0.0287257,-0.000896664,0.0848961,-0.0021172,-0.00414163,0.00850555,0.0242795,-0.00834867,-0.0794153,-0.0241268,0.00868041
976,0.000344161,-0.144278,0.0549426,0.724117,0.0111171,0.0111171,0.0111171,0.0111171,0.0111171,0.0111171,0.0111171,0.0111171,0.0111171,0.119444,-0.988883,0.06194,0.997994,-0.144278,0.0549426,0.724117,0.0380533,0.0567243,0.129623,0.0451574,0.00504589,0.0408974,0.0111171,13.1143,0.968938,0.143484,0.0416372,13.8767,0.71639,-2.78499,-14.7014,0.00699471,0.351512,-0.00899768,1.77733,-0.448092,0.0318629,0.283547,0.0380533,0.0567243,0.129623,0.0451574,0.00504589,0.0408974,0,0,0,0,0,0,0,0,0,0.0290074,0.0504417,-0.00367172,0.475365,0.00469971,0.00567381,-0.0150591,0.0873353,-0.15356,-0.466905,-0.0873748,-0.0149561
977,0.000344161,-0.226462,-0.154114,2.85958,0.0101989,0.0101989,0.0101989,0.0101989,0.0101989,0.0101989,0.0101989,0.0101989,0.0101989,0.817592,0.15716,0.0218764,0.832847,-0.226462,-0.154114,2.85958,0.0548468,0.058758,0.0726013,-0.0678563,0.0148013,0.155445,0.0101989,0.00756377,1.90766,0.0822867,-3.40655,-1.15252,0.164616,-5.56559,-0.528682,-0.69737,0.549353,-1.29905,-1.2524,3.01131,0.0956785,3.95841,0.0548468,0.058758,0.0726013,-0.0678563,0.0148013,0.155445,0,0,0,0,0,0,0,0,0,0.0209135,0.000833237,-0.00298125,1.00623,-0.0017,0.0043917,-0.00330495,-0.0427124,-0.734936,-1.00386,0.0298698,0.0017768
978,0.000344161,-0.080555,-0.0133505,0.326486,0.0627687,0.0627687,0.0627687,0.0627687,0.0627687,0.0627687,0.0627687,0.0627687,0.0627687,0.638926,-0.753435,0.0372313,0.988573,-0.080555,-0.0133505,0.326486,0.0860823,-0.0262689,0.0019989,0.0465644,-0.0255661,0.0802435,0.0627687,4.13655,-10.3894,0.82576,-1.08009,2.80529,-0.949509,-1.21696,7.66465,0.059415,0.247638,-0.093579,-0.47891,0.845804,0.0752936,1.36939,0.0860823,-0.0262689,0.0019989,0.0465644,-0.0255661,0.0802435,0,0,0,0,0,0,0,0,0,0.0309935,0.0159391,0.00467618,0.84818,0.00240159,0.00331872,-0.00464412,0.092685,-0.527208,-0.857655,-0.0938764,-0.00439633
979,0.000344161,-0.0067724,-0.264966,1.76904,0.0251921,0.0251921,0.0251921,0.0251921,0.0251921,0.0251921,0.0251921,0.0251921,0.0251921,0.974808,-0.247591,0.0111934,1.00582,-0.0067724,-0.264966,1.76904,0.0942735,-0.0627656,-0.135529,-0.0318142,0.0580816,0.160538,0.0251921,0.00117008,-1.01721,0.066648,-1.50003,-0.0808903,-0.994732,1.42418,1.10487,-0.295947,-0.423435,-2.0461,3.35203,2.18843,-0.012257,-6.54526,0.0942735,-0.0627656,-0.135529,-0.0318142,0.0580816,0.160538,0,0,0,0,0,0,0,0,0,0.0104215,0.000574183,0.000852323,1.00227,-0.000425296,-0.000813499,-0.00154184,0.0546013,-0.888413,-1.01357,-0.0744814,0.000838372
980,0.000344161,-0.0311165,0.0661364,0.419805,0.0258857,0.0258857,0.0258857,0.0258857,0.0258857,0.0258857,0.0258857,0.0258857,0.0258857,0.213611,0.741463,0.0741143,0.775171,-0.0311165,0.0661364,0.419805,-0.0518603,0.0574006,0.0693512,0.0130556,0.0468619,0.000102997,0.0258857,17.0767,-13.0312,-1.91868,-9.63146,7.28574,-0.185916,1.49795,5.77662,0.849665,3.2745,-0.192766,-1.74371,6.29082,0.0629544,-0.17405,-0.0518603,0.0574006,0.0693512,0.0130556,0.0468619,0.000102997,0,0,0,0,0,0,0,0,0,0.0416985,0.064412,-0.00925354,0.573696,-0.00325886,-0.00935929,-0.0163987,-0.0371339,-0.218672,-0.574862,0.0356749,-0.020397
981,0.000344161,-0.0320816,-0.041219,-0.0345807,0.0534624,0.0534624,0.0534624,0.0534624,0.0534624,0.0534624,0.0534624,0.0534624,0.0534624,-0.633792,0.546749,-0.0465376,0.838328,-0.0320816,-0.041219,-0.0345807,-0.0266433,0.00885811,0.0349255,0.00529844,-0.00186837,-0.0466534,0.0534624,-3.0374,-7.40206,-0.51536,-3.34226,2.63948,-0.0883105,-0.479826,4.79467,-0.568675,-0.139027,0.26706,-0.922945,3.52251,-0.202822,1.43735,-0.0266433,0.00885811,0.0349255,0.00529844,-0.00186837,-0.0466534,0,0,0,0,0,0,0,0,0,-0.00211384,-0.0108469,-0.00258831,0.0325825,-0.000587413,-0.0024767,0.00165646,0.00506754,-0.00179932,-0.0331163,-0.00241563,0.00322596
982,0.000344161,-0.0953178,-0.0627003,0.271598,0.0205297,0.0205297,0.0205297,0.0205297,0.0205297,0.0205297,0.0205297,0.0205297,0.0205297,-0.0652327,-0.934676,0.0794703,0.940314,-0.0953178,-0.0627003,0.271598,0.00193739,-0.0538627,-0.0552788,-0.00216269,0.00833654,0.0461259,0.0205297,15.6006,13.0153,0.849676,1.39125,7.3362,0.454268,-0.660631,-20.2561,-0.0139269,-0.468831,0.00850111,0.456889,-0.859719,0.024222,-0.0678567,0.00193739,-0.0538627,-0.0552788,-0.00216269,0.00833654,0.0461259,0,0,0,0,0,0,0,0,0,0.0256078,0.0599472,0.00133283,0.325237,0.00384494,0.00662529,-0.018146,0.0557639,-0.0851435,-0.321247,-0.0555956,-0.0177138
983,0.000344161,-0.0327816,0.0361004,0.405605,0.0276773,0.0276773,0.0276773,0.0276773,0.0276773,0.0276773,0.0276773,0.0276773,0.0276773,0.0714887,-0.878949,0.0723227,0.884812,-0.0327816,0.0361004,0.405605,0.0905616,-0.116728,-0.0417137,0.0288229,0.0113158,0.0466409,0.0276773,15.4337,4.25559,1.19071,1.58649,2.06958,0.210705,-1.63187,-6.29239,0.21898,3.25445,0.137614,1.25869,-4.87704,0.0398166,-0.0324268,0.0905616,-0.116728,-0.0417137,0.0288229,0.0113158,0.0466409,0,0,0,0,0,0,0,0,0,0.0312579,0.0593228,0.00403252,0.438906,0.00336763,0.00670726,-0.0170592,0.0552974,-0.139791,-0.437216,-0.0538081,-0.017866
984,0.000344161,-0.0431623,-0.00528502,0.144206,0.0704109,0.0704109,0.0704109,0.0704109,0.0704109,0.0704109,0.0704109,0.0704109,0.0704109,-0.0266741,-0.832339,0.0295891,0.833292,-0.0431623,-0.00528502,0.144206,0.0976993,-0.0243535,-0.00585938,0.019556,-0.0116603,0.0210016,0.0704109,6.02531,4.59343,0.296157,1.16465,-1.97943,0.403926,-2.61464,-2.57084,0.0600673,0.977651,0.266743,1.93586,-2.13702,0.0204008,0.534577,0.0976993,-0.0243535,-0.00585938,0.019556,-0.0116603,0.0210016,0,0,0,0,0,0,0,0,0,0.0101752,0.0234104,0.00064101,0.363063,0.000437295,0.00207702,-0.00680654,0.0359676,-0.102214,-0.359082,-0.0334168,-0.00699765
985,0.000344161,0.0266313,-0.104482,0.87127,0.0276831,0.0276831,0.0276831,0.0276831,0.0276831,0.0276831,0.0276831,0.0276831,0.0276831,0.733075,-0.39971,-0.00396236,0.834974,0.0266313,-0.104482,0.87127,0.031876,0.00433773,-0.0945587,0.0259242,-0.115512,0.0694637,0.0276831,-0.146019,-1.65754,-0.151146,-1.19306,1.4655,0.561154,-19.2967,0.165405,-0.089082,-0.278995,1.26864,15.8709,1.57654,0.0089943,2.55458,0.031876,0.00433773,-0.0945587,0.0259242,-0.115512,0.0694637,0,0,0,0,0,0,0,0,0,-0.00439706,-0.000456665,-0.0017225,0.948936,-0.00141366,0.000254419,-0.000201739,0.076114,-0.640201,-0.94427,-0.0645827,0.000506339
986,0.000344161,-0.203625,0.156734,0.752252,0.00477163,0.00477163,0.00477163,0.00477163,0.00477163,0.00477163,0.00477163,0.00477163,0.00477163,-0.347952,0.918492,0.0952284,0.986796,-0.203625,0.156734,0.752252,-0.224979,-0.0741114,-0.0464525,0.101006,0.0382569,0.0577221,0.00477163,13.1198,22.0442,-0.579939,-0.998771,1.64581,0.107768,0.0391917,-23.4863,-0.130869,2.51452,0.00869279,-0.0639516,-1.67248,0.00680701,-0.727492,-0.224979,-0.0741114,-0.0464525,0.101006,0.0382569,0.0577221,0,0,0,0,0,0,0,0,0,0.013541,0.0495554,-0.00146038,0.142024,-0.00341388,-0.00508013,-0.0150679,-0.0322601,-0.0230722,-0.141411,0.0327296,-0.014596
987,0.000344161,-0.143619,0.086959,0.463245,0.0748658,0.0748658,0.0748658,0.0748658,0.0748658,0.0748658,0.0748658,0.0748658,0.0748658,0.905737,0.133558,0.0251342,0.915876,-0.143619,0.086959,0.463245,0.0674952,-0.00630892,-0.00337219,0.0289935,-0.0103152,0.0912885,0.0748658,0.1164,-0.318605,-0.286981,-0.456645,-1.89139,-0.325775,-7.01383,2.35362,-1.19769,1.57614,0.379143,3.5493,-1.20645,0.15681,3.00129,0.0674952,-0.00630892,-0.00337219,0.0289935,-0.0103152,0.0912885,0,0,0,0,0,0,0,0,0,0.0243983,0.00176951,-0.00301826,1.01522,-0.00158277,8.53657e-05,-0.00499343,-0.0308845,-0.824833,-1.01851,0.0345728,0.00209053
988,0.000344161,0.0399208,0.0336056,0.452008,0.0541991,0.0541991,0.0541991,0.0541991,0.0541991,0.0541991,0.0541991,0.0541991,0.0541991,0.89683,-0.819146,-0.0458009,1.21548,0.0399208,0.0336056,0.452008,-0.00324845,-0.0619928,0.0493164,0.0418799,0.0242319,0.0794592,0.0541991,-1.2736,18.4945,-0.463929,2.97611,-2.48091,-1.09998,-1.01557,-16.0536,0.159509,1.53108,-0.302692,-1.51082,-4.5408,-0.0619026,2.07438,-0.00324845,-0.0619928,0.0493164,0.0418799,0.0242319,0.0794592,0,0,0,0,0,0,0,0,0,-0.0424178,-0.00516357,-0.00324646,0.916501,-0.00658196,-0.00201276,0.0022276,0.118842,-0.751914,-0.927007,-0.121627,0.00130844
989,0.000344161,-0.0309914,-0.137915,0.756079,0.0517159,0.0517159,0.0517159,0.0517159,0.0517159,0.0517159,0.0517159,0.0517159,0.0517159,0.876498,-0.0180933,0.0113549,0.876758,-0.0309914,-0.137915,0.756079,0.0749206,-0.035429,0.00531006,-0.0803275,0.0206839,0.125053,0.0517159,0.0202233,0.578579,-0.00472546,-0.0177873,-0.591616,-0.0567932,-2.66752,0.0440285,-0.362855,0.26845,0.0193732,-1.15266,-0.112748,0.111709,3.0641,0.0749206,-0.035429,0.00531006,-0.0803275,0.0206839,0.125053,0,0,0,0,0,0,0,0,0,0.0105521,0.000604116,-0.000618162,1.02111,-0.000860924,0.000216617,-0.00208752,0.00602686,-0.797115,-1.02162,-0.00562629,0.00131221
990,0.000344161,0.0806732,-0.0643289,0.346964,0.0737429,0.0737429,0.0737429,0.0737429,0.0737429,0.0737429,0.0737429,0.0737429,0.0737429,0.798797,0.659971,-0.0262571,1.0365,0.0806732,-0.0643289,0.346964,0.0569194,-0.0769121,0.0228729,0.0374521,-0.0251102,0.0482357,0.0737429,-1.58583,9.01298,0.693758,-1.3008,-1.61596,-1.12125,-1.52261,-7.4777,0.127698,-0.859622,0.387193,-0.949582,2.22475,-0.038683,2.12523,0.0569194,-0.0769121,0.0228729,0.0374521,-0.0251102,0.0482357,0,0,0,0,0,0,0,0,0,-0.0248828,-0.00608202,0.00380443,0.914106,0.00195131,0.00236404,0.0023883,-0.0966913,-0.680812,-0.92509,0.100312,0.00161031
991,0.000344161,0.113309,-0.0428748,-0.0327974,0.0340926,0.0340926,0.0340926,0.0340926,0.0340926,0.0340926,0.0340926,0.0340926,0.0340926,-0.63831,0.0712423,-0.0659074,0.645646,0.113309,-0.0428748,-0.0327974,-0.00431655,0.015923,0.0168823,0.0787245,0.0226014,-0.0452624,0.0340926,-0.202899,3.24394,-0.190534,0.269607,-2.80862,-0.0557353,0.179543,-0.548626,-0.592957,-0.638435,0.00741385,0.187977,0.411702,-0.0153518,-0.334722,-0.00431655,0.015923,0.0168823,0.0787245,0.0226014,-0.0452624,0,0,0,0,0,0,0,0,0,-0.000721909,-0.0001337,-0.00108996,0.00266906,-0.000464136,-0.000656149,-0.00166878,0.00177504,0.000204004,-0.00305759,-0.00147489,0.000599308
992,0.000344161,-0.112194,-0.0309964,0.0183175,0.0760261,0.0760261,0.0760261,0.0760261,0.0760261,0.0760261,0.0760261,0.0760261,0.0760261,-0.139069,0.729715,-0.0180124,0.743067,-0.112194,-0.0309964,0.0183175,-0.0165976,-0.0372915,0.030302,0.00804305,0.00825253,0.0108919,0.0760261,-3.24704,-4.69367,-0.239234,-0.563912,6.48729,-0.383352,-7.72856,-1.68142,-0.0312682,2.26899,-0.37857,7.06068,-1.67408,-0.0150692,0.649559,-0.0165976,-0.0372915,0.030302,0.00804305,0.00825253,0.0108919,0,0,0,0,0,0,0,0,0,-0.00556044,-0.0125209,-0.00360193,0.27303,-0.000290493,0.000836672,0.00368123,-0.00381953,-0.0687917,-0.276561,0.000116356,0.00377647
993,0.000344161,0.0194712,0.0372283,0.253329,0.0720195,0.0720195,0.0720195,0.0720195,0.0720195,0.0720195,0.0720195,0.0720195,0.0720195,0.554425,0.868963,-0.0279805,1.03115,0.0194712,0.0372283,0.253329,0.0162767,-0.0258507,-0.00370789,0.0103095,0.00326061,0.0200672,0.0720195,-4.01519,7.8294,0.43779,-0.402107,-2.73331,-0.89606,-1.40688,-5.11556,-0.0452779,0.534262,-0.00598131,-0.042534,-0.169383,-0.0218117,1.19608,0.0162767,-0.0258507,-0.00370789,0.0103095,0.00326061,0.0200672,0,0,0,0,0,0,0,0,0,-0.0230914,-0.0153381,0.00223195,0.79683,0.002252,0.00188744,0.00448165,-0.0981072,-0.447616,-0.805827,0.09808,0.00464777
994,0.000344161,-0.959152,-1.10814,5.53525,5.44015e-06,5.44015e-06,5.44015e-06,5.44015e-06,5.44015e-06,5.44015e-06,5.44015e-06,5.44015e-06,5.44015e-06,0.830613,-0.626078,-0.0999946,1.04494,-0.959152,-1.10814,5.53525,-0.740442,-0.65469,-0.158752,-0.0384758,0.0536852,0.0927498,5.44015e-06,-4.2128,21.6366,-1.87483,6.05216,-4.19992,-0.00640143,0.0631705,-16.4776,0.795425,4.181,0.00149162,0.00264219,-9.12501,-0.0227353,-5.60106,-0.740442,-0.65469,-0.158752,-0.0384758,0.0536852,0.0927498,0,0,0,0,0,0,0,0,0,-0.0932106,-0.0200051,-0.0135894,0.931529,-0.0113016,-0.0117058,0.00854584,0.104707,-0.712515,-0.93318,-0.104155,0.00511117
995,0.000344161,0.0546964,-0.0802217,-0.0353207,0.0517173,0.0517173,0.0517173,0.0517173,0.0517173,0.0517173,0.0517173,0.0517173,0.0517173,-0.636971,0.228096,-0.0482827,0.6783,0.0546964,-0.0802217,-0.0353207,-0.00395675,0.021662,0.0130215,-0.0117746,0.0355926,-0.00211886,0.0517173,-0.615018,2.27661,-0.515803,-0.976661,-2.74594,-0.115792,-1.44307,0.414627,-0.514076,-0.837167,0.115944,1.0484,1.89405,-0.0549185,0.42999,-0.00395675,0.021662,0.0130215,-0.0117746,0.0355926,-0.00211886,0,0,0,0,0,0,0,0,0,-0.00097046,-0.00170811,-0.00300503,0.00851393,-0.000638777,-0.00193638,-0.00124249,0.00605526,-0.000270292,-0.00954163,-0.00453989,0.00110158
996,0.000344161,0.0280495,0.0567069,0.674735,0.0488164,0.0488164,0.0488164,0.0488164,0.0488164,0.0488164,0.0488164,0.0488164,0.0488164,0.884814,-0.169575,-0.0511836,0.90237,0.0280495,0.0567069,0.674735,0.0811386,0.0537734,-0.0142517,0.0328753,-0.0196295,0.0637726,0.0488164,-0.439071,-1.22389,-0.815408,-4.06607,4.47389,-0.179667,-4.54949,-3.27805,2.82835,6.20522,-0.120701,2.18531,-2.19585,-0.0972661,1.68944,0.0811386,0.0537734,-0.0142517,0.0328753,-0.0196295,0.0637726,0,0,0,0,0,0,0,0,0,-0.052501,-0.00463943,-0.00856175,1.00908,-0.00317086,0.000945412,0.0114563,0.0419617,-0.801785,-1.01102,-0.043365,-0.00301723
997,0.000344161,-0.036713,-0.0041174,0.059685,0.0925224,0.0925224,0.0925224,0.0925224,0.0925224,0.0925224,0.0925224,0.0925224,0.0925224,-0.346676,-0.818642,-0.00747758,0.889053,-0.036713,-0.0041174,0.059685,0.0518972,-0.00502872,0.0294218,0.013426,-0.0088774,0.0129326,0.0925224,-1.02969,-1.60617,-0.0248041,-0.0342516,0.605424,0.777922,0.414191,1.03746,0.0296753,0.239459,-0.147588,-0.628796,-0.20109,0.00318434,0.15492,0.0518972,-0.00502872,0.0294218,0.013426,-0.0088774,0.0129326,0,0,0,0,0,0,0,0,0,-0.00173939,-0.00382908,0.000294763,0.151557,-0.000588575,-0.000593091,0.0012754,0.0164797,-0.0246832,-0.143483,-0.0180444,0.00114048
998,0.000344161,-0.0583277,-0.0541129,-0.018436,0.0251666,0.0251666,0.0251666,0.0251666,0.0251666,0.0251666,0.0251666,0.0251666,0.0251666,-0.573329,-0.825181,0.0748334,1.00759,-0.0583277,-0.0541129,-0.018436,-0.0490927,0.0171771,0.0267305,0.032256,0.054243,-0.0276616,0.0251666,6.63946,10.9204,0.409359,-1.17376,-3.40527,0.27948,0.950741,-7.45679,0.284219,1.57812,-0.00154571,-0.453708,-0.350242,0.00250421,-0.478597,-0.0490927,0.0171771,0.0267305,0.032256,0.054243,-0.0276616,0,0,0,0,0,0,0,0,0,0.00351737,0.0250114,0.00159733,0.0532987,0.000454655,0.00266803,-0.00635803,0.0115421,-0.00378198,-0.0502366,-0.0110151,-0.0080662
999,0.000344161,0.0344782,-0.0299599,0.273111,0.0506614,0.0506614,0.0506614,0.0506614,0.0506614,0.0506614,0.0506614,0.0506614,0.0506614,0.304133,-0.863291,-0.0493386,0.916626,0.0344782,-0.0299599,0.273111,0.0839942,0.00517702,-0.0241737,0.0412377,-0.013845,0.0650434,0.0506614,-9.96458,8.18843,-0.954307,0.0981918,-4.02361,-0.335655,-2.2975,-4.1993,-0.292191,-3.47278,0.238707,1.34263,3.40455,-0.0383081,0.681763,0.0839942,0.00517702,-0.0241737,0.0412377,-0.013845,0.0650434,0,0,0,0,0,0,0,0,0,-0.0316309,-0.0377435,-0.00390269,0.630137,-0.00463315,-0.00558861,0.0104046,0.0762641,-0.265246,-0.633735,-0.0740154,0.0117931
1000,0.000344161,-0.0701547,0.00131283,0.18144,0.0814485,0.0814485,0.0814485,0.0814485,0.0814485,0.0814485,0.0814485,0.0814485,0.0814485,0.569618,-0.913547,0.0185515,1.07674,-0.0701547,0.00131283,0.18144,0.088849,-9.99346e-05,-0.0133591,0.0338025,0.00417042,0.0852548,0.0814485,2.52208,-4.83668,0.176373,-0.291605,1.67334,-0.89195,-1.80998,3.2335,0.0181927,0.251282,-0.00343174,0.30662,0.0390101,0.0403399,1.32193,0.088849,-9.99346e-05,-0.0133591,0.0338025,0.00417042,0.0852548,0,0,0,0,0,0,0,0,0,0.014256,0.00983714,0.00108317,0.799944,0.00102392,0.000679561,-0.00295755,0.109087,-0.453259,-0.808998,-0.10908,-0.00258955
1001,0.000344161,-0.195112,-0.013211,0.28402,0.0638518,0.0638518,0.0638518,0.0638518,0.0638518,0.0638518,0.0638518,0.0638518,0.0638518,0.534913,-0.799406,0.0361482,0.962543,-0.195112,-0.013211,0.28402,0.122415,-0.00700742,-0.0263596,0.0256293,-0.0176086,0.0719378,0.0638518,5.14979,-9.86738,0.760914,-0.833691,3.23482,-0.857426,-1.30888,6.82767,0.135913,0.913567,0.0246093,-0.15461,-0.0666652,0.0635057,1.17948,0.122415,-0.00700742,-0.0263596,0.0256293,-0.0176086,0.0719378,0,0,0,0,0,0,0,0,0,0.028023,0.019935,0.00446752,0.791314,0.00220775,0.00307154,-0.00561828,0.0883512,-0.43669,-0.800152,-0.0882812,-0.00574877
1002,0.000344161,-0.0970914,0.00118166,0.137361,0.0543124,0.0543124,0.0543124,0.0543124,0.0543124,0.0543124,0.0543124,0.0543124,0.0543124,-0.305505,-0.695488,0.0456876,0.761002,-0.0970914,0.00118166,0.137361,0.0426106,0.0206578,0.029871,0.0210027,-0.0045082,0.0251119,0.0543124,6.11426,10.0383,-0.6855,-1.82904,-8.76333,0.123849,-3.15427,-1.17793,-0.238339,1.99897,-0.0286998,2.83252,-0.171103,0.0165685,0.184388,0.0426106,0.0206578,0.029871,0.0210027,-0.0045082,0.0251119,0,0,0,0,0,0,0,0,0,0.00702328,0.0238829,-0.00566878,0.166354,-0.000710601,-0.000979647,-0.00798808,-0.00522168,-0.0321018,-0.164817,0.0048896,-0.006693
1003,0.000344161,0.071166,0.00330424,0.0460997,0.037041,0.037041,0.037041,0.037041,0.037041,0.037041,0.037041,0.037041,0.037041,-0.464358,-0.670965,-0.062959,0.818405,0.071166,0.00330424,0.0460997,0.00701654,-0.0448396,0.0160313,-0.0112733,-0.006309,0.0122983,0.037041,-6.23827,-10.5562,0.679399,3.18865,7.38098,0.185785,0.038761,3.10404,0.0810885,-0.30383,-0.151658,-0.229884,-2.88812,-0.00233412,0.145023,0.00701654,-0.0448396,0.0160313,-0.0112733,-0.006309,0.0122983,0,0,0,0,0,0,0,0,0,-0.00639188,-0.0240584,0.00434789,0.091896,-0.000167409,0.0019977,0.00744693,-0.00356391,-0.0122868,-0.0898779,0.00198424,0.00714767
1004,0.000344161,-1.70189,-0.397253,4.87509,0.00227151,0.00227151,0.00227151,0.00227151,0.00227151,0.00227151,0.00227151,0.00227151,0.00227151,0.881544,-0.908084,-0.0977285,1.26937,-1.70189,-0.397253,4.87509,-0.119737,-0.197607,-0.0377579,-0.199061,0.0525837,0.0288458,0.00227151,-3.55551,25.6696,-0.445088,2.24919,-4.24325,-0.034691,0.0326427,-19.7245,0.204019,1.54779,-0.00720387,-0.0115002,-3.39973,-0.0334576,-4.89624,-0.119737,-0.197607,-0.0377579,-0.199061,0.0525837,0.0288458,0,0,0,0,0,0,0,0,0,-0.0895379,-0.014136,-0.00387289,0.917827,-0.0131465,-0.00255406,0.00426506,0.124212,-0.727036,-0.918551,-0.123758,0.00421722
1005,0.000344161,-0.0562944,-0.000692248,0.185921,0.0694231,0.0694231,0.0694231,0.0694231,0.0694231,0.0694231,0.0694231,0.0694231,0.0694231,0.425922,0.899436,0.0305769,0.995655,-0.0562944,-0.000692248,0.185921,0.0656185,-0.0228518,0.00205231,0.00735492,-0.0144873,0.0377195,0.0694231,5.22778,-7.19159,-0.431,0.480612,3.15075,-0.595027,-2.18167,4.09713,0.0798075,-1.22176,-0.108109,0.989745,0.741844,0.0468305,1.006,0.0656185,-0.0228518,0.00205231,0.00735492,-0.0144873,0.0377195,0,0,0,0,0,0,0,0,0,0.0211391,0.0201611,-0.00173831,0.716826,-0.00330106,-0.0028002,-0.00587009,-0.093098,-0.346317,-0.722756,0.0918721,-0.00588315
1006,0.000344161,-0.150094,0.0283809,0.0398789,0.0428889,0.0428889,0.0428889,0.0428889,0.0428889,0.0428889,0.0428889,0.0428889,0.0428889,-0.166176,-0.683447,-0.0419965,0.704612,-0.150094,0.0283809,0.0398789,-0.0125723,0.0196892,0.1203,0.0170174,-0.0679873,0.00764441,0.0428889,-6.66249,-9.90384,1.26277,6.77764,23.2966,-1.29708,-13.6788,-13.2427,-0.302811,-12.8612,0.671796,13.0511,6.05515,-0.0277586,0.587873,-0.0125723,0.0196892,0.1203,0.0170174,-0.0679873,0.00764441,0,0,0,0,0,0,0,0,0,-0.0107073,-0.0253203,0.0152484,0.244125,-0.000344673,-0.00242381,0.00662599,-0.00596629,-0.0609529,-0.255893,0.0120044,0.00795439
1007,0.000344161,0.0338819,-0.0208889,0.243186,0.0948598,0.0948598,0.0948598,0.0948598,0.0948598,0.0948598,0.0948598,0.0948598,0.0948598,0.797465,-0.855187,-0.00514019,1.16933,0.0338819,-0.0208889,0.243186,0.0173141,-0.0151405,0.0352859,0.0535733,0.0285168,0.109997,0.0948598,-0.266405,2.42506,-0.0838446,0.204754,-0.531549,-1.34543,-1.62685,-1.92739,-0.00768484,0.0160106,-0.175692,-1.02335,-0.199875,0.012882,2.40702,0.0173141,-0.0151405,0.0352859,0.0535733,0.0285168,0.109997,0,0,0,0,0,0,0,0,0,-0.00514976,-0.00115277,-0.000250735,0.892679,-0.00171276,-0.000739116,0.000322124,0.115671,-0.656388,-0.905781,-0.117143,0.000707076
1008,0.000344161,-0.0493701,0.0136574,0.0303776,0.0993437,0.0993437,0.0993437,0.0993437,0.0993437,0.0993437,0.0993437,0.0993437,0.0993437,-0.423834,0.849241,0.000656343,0.94913,-0.0493701,0.0136574,0.0303776,0.0267487,-0.0176749,0.0351095,0.00752241,0.00417829,-0.0016987,0.0993437,0.0270938,0.321572,-0.00161749,0.0432684,-0.0583522,0.822072,0.688824,-0.21385,-0.00689968,0.0169109,0.108319,-0.838138,-0.0738368,0.00281572,0.118937,0.0267487,-0.0176749,0.0351095,0.00752241,0.00417829,-0.0016987,0,0,0,0,0,0,0,0,0,-0.000559077,0.000205079,-0.000113681,0.115421,-0.000351647,-7.92422e-05,-6.10197e-05,-0.0184864,-0.0148259,-0.106849,0.0196114,-5.85483e-05
1009,0.000344161,-0.961763,0.0712647,1.10356,0.00316046,0.00316046,0.00316046,0.00316046,0.00316046,0.00316046,0.00316046,0.00316046,0.00316046,-0.383293,0.958636,0.0968395,1.03695,-0.961763,0.0712647,1.10356,-0.147421,-0.200278,-0.00699711,0.0932627,0.0797091,0.0540333,0.00316046,12.5383,22.2674,-0.382573,-0.509062,6.67835,0.0836386,0.0129228,-27.9839,-0.0462787,1.49758,0.00327284,-0.0534647,-1.05978,0.00441698,-1.06301,-0.147421,-0.200278,-0.00699711,0.0932627,0.0797091,0.0540333,0,0,0,0,0,0,0,0,0,0.0120087,0.0475357,0.000422791,0.122034,-0.00385539,-0.0062513,-0.014184,-0.0357892,-0.0170606,-0.121268,0.036619,-0.0141266
1010,0.000344161,-0.056283,-0.0211653,0.115829,0.0616872,0.0616872,0.0616872,0.0616872,0.0616872,0.0616872,0.0616872,0.0616872,0.0616872,-0.201654,0.893001,-0.0383128,0.916287,-0.056283,-0.0211653,0.115829,-0.0490606,-0.0469516,0.0141811,0.00662196,0.000530958,-0.00196195,0.0616872,-6.4617,-8.75441,0.282751,0.836208,0.616637,0.917607,-0.418863,8.19406,0.0683494,-1.03614,0.0461058,0.0154219,0.221094,-0.00973943,0.287612,-0.0490606,-0.0469516,0.0141811,0.00662196,0.000530958,-0.00196195,0,0,0,0,0,0,0,0,0,-0.0097652,-0.0251144,0.000130948,0.236809,0.00100385,0.00222704,0.00781427,-0.0353479,-0.0500324,-0.227491,0.0358143,0.00738091
1011,0.000344161,-0.00881058,-0.00998661,-0.0262239,0.0934678,0.0934678,0.0934678,0.0934678,0.0934678,0.0934678,0.0934678,0.0934678,0.0934678,-0.616489,0.376281,-0.00653223,0.72228,-0.00881058,-0.00998661,-0.0262239,-0.00178368,0.00315701,0.000180006,-0.00563466,0.0109524,-0.00527846,0.0934678,-0.234394,-0.147849,-0.135311,-0.504052,-0.109009,-0.160656,-3.67581,0.265668,-0.0794001,0.190446,0.315007,1.46701,0.323592,-0.0135333,2.23502,-0.00178368,0.00315701,0.000180006,-0.00563466,0.0109524,-0.00527846,0,0,0,0,0,0,0,0,0,-0.000717655,-0.000788554,-0.000754991,0.0223739,-0.000404814,-0.000566551,-3.2838e-05,0.0100339,-0.00144009,-0.0239787,-0.00677429,0.000298277
1012,0.000344161,-0.332817,-0.238171,2.95455,0.009489,0.009489,0.009489,0.009489,0.009489,0.009489,0.009489,0.009489,0.009489,0.750891,0.334118,-0.00565151,0.821891,-0.332817,-0.238171,2.95455,0.0403745,-0.0822857,0.0621872,0.020384,-0.175932,0.0984994,0.009489,-0.0604067,-2.66384,0.0713398,1.20256,1.70945,0.730857,-9.34111,1.28721,-0.0212529,1.96019,-1.66944,3.42848,-2.92457,-0.0269598,2.95809,0.0403745,-0.0822857,0.0621872,0.020384,-0.175932,0.0984994,0,0,0,0,0,0,0,0,0,-0.00651825,-0.00015859,0.00194611,0.969382,-0.000197517,-0.00205557,-6.27736e-05,-0.0727598,-0.661774,-0.961451,0.054306,0.000299269
1013,0.000344161,-0.411237,-0.925663,0.0833133,0.000347002,0.000347002,0.000347002,0.000347002,0.000347002,0.000347002,0.000347002,0.000347002,0.000347002,-0.558583,0.152314,0.0919917,0.58624,-0.411237,-0.925663,0.0833133,0.142827,0.0195085,0.0972359,0.142222,-0.0375046,-0.0213445,0.000347002,0.0536355,-12.1956,0.234326,-40.9807,11.1804,-0.00478351,2.20937,1.42644,1.02419,37.6752,-0.0252207,-2.01083,4.23117,0.00602562,-0.281847,0.142827,0.0195085,0.0972359,0.142222,-0.0375046,-0.0213445,0,0,0,0,0,0,0,0,0,-5.31971e-05,-0.000572563,0.0046416,0.00720096,0.000114447,-0.00210326,0.0042772,0.00691899,-0.000497311,-0.00627644,-0.00754625,-0.00163147
1014,0.000344161,-0.469193,-0.0870829,2.25723,0.00986695,0.00986695,0.00986695,0.00986695,0.00986695,0.00986695,0.00986695,0.00986695,0.00986695,0.832921,0.809898,0.090133,1.16525,-0.469193,-0.0870829,2.25723,0.0350786,-0.173807,-0.0161972,0.136417,0.0213203,0.0196214,0.00986695,4.76577,-28.4002,-1.0969,4.26053,5.82925,-0.22883,0.149837,23.0401,-0.207431,1.34233,0.0620519,-0.290353,-5.51578,0.12589,-2.11671,0.0350786,-0.173807,-0.0161972,0.136417,0.0213203,0.0196214,0,0,0,0,0,0,0,0,0,0.0810278,0.0183789,-0.00650424,0.914216,-0.0106564,-0.00620281,-0.00598047,-0.112588,-0.696327,-0.916667,0.113422,-0.00489785
1015,0.000344161,0.312351,-1.17089,2.6639,0.0135828,0.0135828,0.0135828,0.0135828,0.0135828,0.0135828,0.0135828,0.0135828,0.0135828,0.967804,-0.659353,-0.0864172,1.17425,0.312351,-1.17089,2.6639,0.262522,-0.173166,-0.0292053,-0.148684,-0.0668783,0.134287,0.0135828,-1.05481,28.3095,-0.733628,15.5288,-1.93938,-0.290152,-2.90351,-26.6824,1.39454,5.49972,-0.210831,-0.538397,-19.8576,-0.0869485,0.778013,0.262522,-0.173166,-0.0292053,-0.148684,-0.0668783,0.134287,0,0,0,0,0,0,0,0,0,-0.0816193,-0.0045394,-0.010989,0.945374,-0.0109188,0.00192103,0.00565132,0.120375,-0.837978,-0.948567,-0.123152,-0.000341284
1016,0.000344161,-0.525896,0.0806408,1.73831,0.00927293,0.00927293,0.00927293,0.00927293,0.00927293,0.00927293,0.00927293,0.00927293,0.00927293,0.539115,-0.61528,0.0907271,0.823071,-0.525896,0.0806408,1.73831,-0.057044,-0.517654,-0.0307693,-0.0969391,0.0379415,0.149238,0.00927293,10.7864,-14.5612,4.53958,-17.8324,22.3919,0.042579,-2.91231,-7.30488,1.95213,29.3467,0.108116,2.89855,-11.5949,0.0945424,-1.72455,-0.057044,-0.517654,-0.0307693,-0.0969391,0.0379415,0.149238,0,0,0,0,0,0,0,0,0,0.0748407,0.0388448,0.0307913,0.827305,0.00491941,0.009428,-0.00552593,0.0619714,-0.454387,-0.827187,-0.0605108,-0.013583
1017,0.000344161,0.00635433,0.0255423,0.0774834,0.0671172,0.0671172,0.0671172,0.0671172,0.0671172,0.0671172,0.0671172,0.0671172,0.0671172,-0.244809,-0.855934,0.0328828,0.890863,0.00635433,0.0255423,0.0774834,0.0574573,-0.0227073,0.00985336,0.0176547,-0.002985,0.0182786,0.0671172,5.19335,7.79516,0.163656,0.560167,-1.81907,0.820884,-0.217463,-5.98244,-0.108356,-0.98487,-0.0777274,-0.107302,0.399161,0.0106172,0.247283,0.0574573,-0.0227073,0.00985336,0.0176547,-0.002985,0.0182786,0,0,0,0,0,0,0,0,0,0.00626595,0.0202667,0.000386567,0.208485,0.000366887,0.00102292,-0.00644082,0.0267989,-0.0413429,-0.200177,-0.027606,-0.00584283
1018,0.000344161,0.109314,-0.0598929,0.219825,0.0568534,0.0568534,0.0568534,0.0568534,0.0568534,0.0568534,0.0568534,0.0568534,0.0568534,0.21287,0.751735,-0.0193065,0.781532,0.109314,-0.0598929,0.219825,-0.0921668,-0.016626,0.0471611,0.00754315,0.000747919,0.0110204,0.0568534,-4.41839,3.14927,0.473387,2.3518,-1.84705,-0.382307,1.56149,-1.41154,-0.247938,-0.5619,-0.437259,-2.96251,-1.73001,-0.0159733,1.1812,-0.0921668,-0.016626,0.0471611,0.00754315,0.000747919,0.0110204,0,0,0,0,0,0,0,0,0,-0.0117332,-0.0170652,0.00251509,0.570104,0.000400087,0.00205252,0.00428561,-0.041179,-0.217186,-0.573455,0.0368139,0.00546282
1019,0.000344161,-0.0404152,-0.0668143,0.298626,0.078456,0.078456,0.078456,0.078456,0.078456,0.078456,0.078456,0.078456,0.078456,0.767363,0.449373,0.021544,0.88952,-0.0404152,-0.0668143,0.298626,0.0145896,-0.0383222,0.0507736,0.0791308,-0.0202336,0.0629528,0.078456,0.92824,-0.0938942,-0.554438,0.30422,-0.914799,-0.429402,-9.35645,1.04911,-0.101364,-0.847297,0.00525148,6.72153,0.609891,0.080981,2.33629,0.0145896,-0.0383222,0.0507736,0.0791308,-0.0202336,0.0629528,0,0,0,0,0,0,0,0,0,0.0193191,0.00348584,-0.00421012,0.942743,-0.00220539,-0.00171748,-0.00133947,-0.0746122,-0.670025,-0.946529,0.0744624,-0.000508635
1020,0.000344161,-1.2367,-0.355819,4.37495,0.00188915,0.00188915,0.00188915,0.00188915,0.00188915,0.00188915,0.00188915,0.00188915,0.00188915,0.073582,-0.871666,0.0981109,0.880251,-1.2367,-0.355819,4.37495,0.458324,0.0700004,0.0299301,0.193834,-0.00590467,0.11407,0.00188915,20.7666,5.20432,1.49349,2.11233,3.09142,0.00644441,-0.136362,-7.05904,0.154728,3.39394,0.008086,0.109295,-5.15045,0.0219307,-4.34788,0.458324,0.0700004,0.0299301,0.193834,-0.00590467,0.11407,0,0,0,0,0,0,0,0,0,0.0427764,0.0810751,0.00633412,0.440217,0.00462865,0.00930079,-0.0233066,0.0524473,-0.141641,-0.439853,-0.0524255,-0.0243694
1021,0.000344161,-0.0162838,-0.138893,-0.0627877,0.0269774,0.0269774,0.0269774,0.0269774,0.0269774,0.0269774,0.0269774,0.0269774,0.0269774,-0.582759,0.166054,-0.00149245,0.605957,-0.0162838,-0.138893,-0.0627877,0.0203344,0.000781516,0.0158126,0.00272614,0.118557,-0.00895141,0.0269774,-0.00634003,0.152825,-0.00844765,-0.114975,-0.0418446,-0.135453,0.291102,-0.0946971,-0.0113844,0.155307,-0.239493,-0.198896,0.0985607,-0.00215318,-0.0294177,0.0203344,0.000781516,0.0158126,0.00272614,0.118557,-0.00895141,0,0,0,0,0,0,0,0,0,-0.000560559,7.66279e-05,-0.000128252,0.00569421,-0.000344584,5.15904e-05,-3.66353e-05,0.0051219,-0.000360899,-0.00689061,-0.00633127,-4.88671e-05
1022,0.000344161,0.0161486,-0.00258765,0.0363272,0.067147,0.067147,0.067147,0.067147,0.067147,0.067147,0.067147,0.067147,0.067147,-0.568449,-0.924044,-0.032853,1.08539,0.0161486,-0.00258765,0.0363272,0.00804609,0.00775205,-0.0284238,0.00253123,0.0271331,0.0148792,0.067147,-2.93222,-7.06469,-0.220015,0.183834,-1.05886,1.06731,-0.211337,8.1074,-0.0311063,-0.63665,0.0442912,0.151519,0.455404,-0.0153187,0.0234908,0.00804609,0.00775205,-0.0284238,0.00253123,0.0271331,0.0148792,0,0,0,0,0,0,0,0,0,-0.00246262,-0.0112133,0.000217116,0.0554387,-0.00108194,-0.00233974,0.00326465,0.0206417,-0.0022741,-0.0450498,-0.0199274,0.00340532
1023,0.000344161,0.0701427,0.0703797,0.344993,0.0735732,0.0735732,0.0735732,0.0735732,0.0735732,0.0735732,0.0735732,0.0735732,0.0735732,0.908931,0.640364,-0.0264268,1.11217,0.0701427,0.0703797,0.344993,-0.0153112,0.00106168,0.00727081,0.0230526,-0.0305166,0.0863787,0.0735732,-0.474037,10.6134,0.459949,-4.45307,-1.13672,-1.26343,-1.42173,-9.54683,0.386577,-1.95441,0.755382,-1.70528,6.33711,-0.0101928,2.78201,-0.0153112,0.00106168,0.00727081,0.0230526,-0.0305166,0.0863787,0,0,0,0,0,0,0,0,0,-0.0255857,-0.00244266,0.00387186,0.935004,0.00212557,0.000738247,0.00205223,-0.104938,-0.786146,-0.947565,0.112187,0.000385005
