Point ID,area,equilibrium_x,equilibrium_y,equilibrium_z,lambda_equilibrium_x,lambda_equilibrium_y,lambda_equilibrium_z,lambda_stress_disp_xx,lambda_stress_disp_xy,lambda_stress_disp_xz,lambda_stress_disp_yy,lambda_stress_disp_yz,lambda_stress_disp_zz,Points_0,Points_1,Points_2,Points_Magnitude,pred_equilibrium_x,pred_equilibrium_y,pred_equilibrium_z,pred_stress_disp_xx,pred_stress_disp_xy,pred_stress_disp_xz,pred_stress_disp_yy,pred_stress_disp_yz,pred_stress_disp_zz,sdf,sigma_xx,sigma_xx__x,sigma_xy,sigma_xy__x,sigma_xy__y,sigma_xz,sigma_xz__x,sigma_xz__z,sigma_yy,sigma_yy__y,sigma_yz,sigma_yz__y,sigma_yz__z,sigma_zz,sigma_zz__z,stress_disp_xx,stress_disp_xy,stress_disp_xz,stress_disp_yy,stress_disp_yz,stress_disp_zz,true_equilibrium_x,true_equilibrium_y,true_equilibrium_z,true_stress_disp_xx,true_stress_disp_xy,true_stress_disp_xz,true_stress_disp_yy,true_stress_disp_yz,true_stress_disp_zz,u,u__x,u__y,u__z,v,v__x,v__y,v__z,w,w__x,w__y,w__z
0,0.00051179,0.00226475,0.0042591,-0.000279032,0.124398,0.124398,0.124398,0.124398,0.124398,0.124398,0.124398,0.124398,0.124398,-0.874398,-0.0767733,0.600807,1.06369,0.00226475,0.0042591,-0.000279032,-0.0039648,0.000164143,0.000205595,0.00292289,-0.000103671,0.00314871,0.124398,0.00177099,-0.020472,-0.000157826,0.00804146,-8.01484e-05,-0.00177953,0.0294641,0.0182874,-0.000138657,-0.00164253,-0.000376381,-0.000455918,-0.010658,0.00378857,-0.0287292,-0.0039648,0.000164143,0.000205595,0.00292289,-0.000103671,0.00314871,0,0,0,0,0,0,0,0,0,-0.000626855,-1.96549e-05,-5.85473e-05,-0.00020061,-0.000339234,5.86105e-05,5.23537e-06,2.68219e-05,0.000318065,0.000184871,-3.16224e-05,2.60006e-05
1,0.00051179,0.0229303,-0.00465762,-0.0193426,0.0122369,0.0122369,0.0122369,0.0122369,0.0122369,0.0122369,0.0122369,0.0122369,0.0122369,-0.987763,-0.721188,0.597142,1.36102,0.0229303,-0.00465762,-0.0193426,0.00561676,0.00248888,-0.00546647,0.0097045,0.0179824,-0.000123963,0.0122369,0.00501467,-0.0415066,0.00181026,-0.0164387,-0.00642612,-0.00542385,0.0227863,0.0250025,0.00717594,0.0172322,-0.00157839,0.00809574,0.0038642,0.0047077,-0.0115395,0.00561676,0.00248888,-0.00546647,0.0097045,0.0179824,-0.000123963,0,0,0,0,0,0,0,0,0,-0.000459135,1.61238e-05,-0.00044413,-0.000371636,-0.000386143,0.000487122,4.73688e-05,5.61451e-05,0.000292622,0.000262732,0.000107895,-1.41147e-05
2,0.00051179,-0.0186431,0.00197068,-0.0406613,0.0620304,0.0620304,0.0620304,0.0620304,0.0620304,0.0620304,0.0620304,0.0620304,0.0620304,-0.93797,0.741253,-0.183918,1.20957,-0.0186431,0.00197068,-0.0406613,0.00287676,-0.00197158,0.030188,-0.0046531,-0.029864,-0.00622071,0.0620304,-0.394544,-1.54965,0.0482563,0.13206,0.38603,-0.0668032,-1.27445,1.18227,-0.0359489,0.185488,0.00227625,0.121703,-0.319519,0.0450607,1.19341,0.00287676,-0.00197158,0.030188,-0.0046531,-0.029864,-0.00622071,0,0,0,0,0,0,0,0,0,-0.000807233,-0.00150438,-0.000440822,-0.000200049,-0.000244582,0.000903669,0.000250947,-8.37191e-05,0.000299737,-0.000166104,-0.000192158,0.000648157
3,0.00051179,0.0103328,-0.00397561,-0.00442881,0.0510274,0.0510274,0.0510274,0.0510274,0.0510274,0.0510274,0.0510274,0.0510274,0.0510274,-0.801027,0.94575,0.501059,1.33684,0.0103328,-0.00397561,-0.00442881,0.00576395,-0.00562393,0.00305954,0.00987412,0.00861463,-0.00060003,0.0510274,0.00116582,0.00448993,-0.000846677,0.000440628,0.00631265,0.000389747,-0.040797,-0.0211354,-0.00420676,0.0320666,0.00173253,-0.0108445,-0.0285316,-0.00295373,0.0560703,0.00576395,-0.00562393,0.00305954,0.00987412,0.00861463,-0.00060003,0,0,0,0,0,0,0,0,0,-0.000326298,2.42142e-05,0.000463625,-0.000638739,-0.000397706,-0.000528331,1.79021e-05,0.000193926,0.0003298,0.000673232,-9.04541e-05,-2.82035e-05
4,0.00051179,0.0439489,-0.0107952,-0.0371104,0.0459531,0.0459531,0.0459531,0.0459531,0.0459531,0.0459531,0.0459531,0.0459531,0.0459531,-0.795953,-0.210275,0.0372143,0.824101,0.0439489,-0.0107952,-0.0371104,0.00515658,0.00269448,-0.0129603,-0.00761683,-0.00201417,-0.0077363,0.0459531,0.23287,1.74727,-0.0970855,-1.25747,0.47365,0.216921,0.794258,-2.26487,0.121849,-0.135812,-0.116761,0.416698,1.40408,-0.0600233,-1.17384,0.00515658,0.00269448,-0.0129603,-0.00761683,-0.00201417,-0.0077363,0,0,0,0,0,0,0,0,0,-0.000445522,0.000861863,-0.000514312,0.0025993,-0.00040623,-0.000429598,0.000242893,-0.00115433,0.000410959,-0.000559689,-3.34215e-05,-0.000667066
5,0.00051179,-0.00150044,0.00603956,-0.000230258,0.0303873,0.0303873,0.0303873,0.0303873,0.0303873,0.0303873,0.0303873,0.0303873,0.0303873,-0.969613,-0.781787,-0.745072,1.45137,-0.00150044,0.00603956,-0.000230258,7.69797e-05,-0.00160439,0.00181442,-0.00526154,0.0129372,0.00218943,0.0303873,0.000300363,0.0165355,-0.00161179,0.00621856,-0.00358975,0.00124639,-0.000557896,-0.0114453,-0.00104019,-0.00184272,-0.00106528,-0.000885289,-0.0104154,-0.00205167,0.00167344,7.69797e-05,-0.00160439,0.00181442,-0.00526154,0.0129372,0.00218943,0,0,0,0,0,0,0,0,0,-0.000518329,8.5636e-06,0.000365888,-0.000465651,-0.000277096,-0.00039805,-2.48318e-05,-5.89662e-05,0.000270188,0.000496259,0.000177685,7.36569e-06
6,0.00051179,-0.0149408,-0.00667473,-0.00876257,0.033732,0.033732,0.033732,0.033732,0.033732,0.033732,0.033732,0.033732,0.033732,-0.966268,-0.567037,-0.47537,1.21704,-0.0149408,-0.00667473,-0.00876257,-0.00887699,-6.48201e-05,-0.00522042,-0.00191259,0.00318952,0.0136392,0.033732,-0.0218869,0.256691,-0.00224268,-0.00715857,0.0237551,-0.0220324,0.153182,-0.265505,-0.00835829,-0.0405219,-0.00353523,0.0225856,0.0543552,-0.0134924,-0.167005,-0.00887699,-6.48201e-05,-0.00522042,-0.00191259,0.00318952,0.0136392,0,0,0,0,0,0,0,0,0,-0.000543095,-0.000106641,0.000407512,-0.000361302,-0.000305379,-0.000430587,-4.17594e-06,-0.000102593,0.000313453,8.87743e-05,9.91364e-05,4.79126e-05
7,0.00051179,-0.00125718,-0.00319601,-0.00224347,0.0923652,0.0923652,0.0923652,0.0923652,0.0923652,0.0923652,0.0923652,0.0923652,0.0923652,-0.907635,0.829652,-0.608173,1.37186,-0.00125718,-0.00319601,-0.00224347,-0.00166057,-0.00227093,0.0020647,0.0001135,-0.00443763,-0.000817035,0.0923652,0.000231221,0.0215872,-0.00172835,0.0132598,0.00302289,-0.000929091,0.0138947,-0.023353,0.00221912,-0.0232802,0.00111239,0.00177637,0.0132165,-0.000419643,-0.0134276,-0.00166057,-0.00227093,0.0020647,0.0001135,-0.00443763,-0.000817035,0,0,0,0,0,0,0,0,0,-0.000606619,-6.76204e-06,-0.000451926,-0.000580162,-0.000289077,0.000411933,1.20478e-05,0.000135633,0.000268847,0.000591518,-0.000168886,-5.7987e-06
8,0.00051179,0.00631857,0.0379554,-0.00194359,0.0533277,0.0533277,0.0533277,0.0533277,0.0533277,0.0533277,0.0533277,0.0533277,0.0533277,-0.803328,0.0791288,0.289235,0.857469,0.00631857,0.0379554,-0.00194359,0.000210889,0.00184709,-0.00149742,0.00775054,-0.00981217,-0.00295238,0.0533277,0.00319923,-0.193023,0.00169922,-0.0334562,0.011379,-0.0125797,0.331824,0.175326,0.0303501,-0.0814619,-0.00751429,-0.0653256,0.0769628,0.0233753,-0.264555,0.000210889,0.00184709,-0.00149742,0.00775054,-0.00981217,-0.00295238,0,0,0,0,0,0,0,0,0,-0.000537328,-5.44113e-05,0.000107663,-0.000458143,-0.000336552,-7.22004e-05,0.000119041,-0.000110703,0.000321403,0.000317372,-6.25618e-05,3.06526e-05
9,0.00051179,0.0148363,0.008328,0.00121007,0.0275991,0.0275991,0.0275991,0.0275991,0.0275991,0.0275991,0.0275991,0.0275991,0.0275991,-0.972401,0.000940475,0.670222,1.181,0.0148363,0.008328,0.00121007,-0.00162644,0.000617064,0.000400459,0.00750622,-0.00184499,6.14987e-06,0.0275991,0.00253583,-0.0263185,-0.000494234,0.0110106,0.000147891,-0.00355011,0.0254708,0.0113343,0.00827507,0.000609066,0.000307257,-0.00192629,-0.0199476,0.0057078,-0.0247546,-0.00162644,0.000617064,0.000400459,0.00750622,-0.00184499,6.14987e-06,0,0,0,0,0,0,0,0,0,-0.000640802,-2.13045e-05,-6.13447e-06,-0.000204305,-0.000338579,7.36277e-06,5.3055e-05,1.66248e-05,0.000298791,0.000172809,-3.20021e-05,2.71825e-06
10,0.00051179,0.00225493,-0.0199552,-0.0162807,0.0516047,0.0516047,0.0516047,0.0516047,0.0516047,0.0516047,0.0516047,0.0516047,0.0516047,-0.801605,0.214324,-0.292795,0.879905,0.00225493,-0.0199552,-0.0162807,-0.00104729,-0.000997312,-0.00778993,-0.0104276,-0.0301988,0.00488926,0.0516047,-0.00629656,0.375816,-5.77495e-05,0.0192304,0.000312656,-0.0218472,0.655124,-0.378384,0.0192948,0.115792,-0.0119431,-0.00835233,-0.115067,-0.0506929,-0.630491,-0.00104729,-0.000997312,-0.00778993,-0.0104276,-0.0301988,0.00488926,0,0,0,0,0,0,0,0,0,-0.000557974,1.43734e-05,-0.000244135,-0.000792403,-0.000313634,0.000233584,9.54285e-05,-0.000310316,0.000343665,0.000496032,-0.000111102,-0.000177925
11,0.00051179,-0.00594554,-0.0022777,-0.0137028,0.0167374,0.0167374,0.0167374,0.0167374,0.0167374,0.0167374,0.0167374,0.0167374,0.0167374,-0.983263,0.237054,-0.809155,1.29527,-0.00594554,-0.0022777,-0.0137028,-0.00168853,0.000280566,0.00119633,-0.0096792,-0.00276163,0.00212939,0.0167374,-0.00162242,0.0256957,-0.00207465,0.0126638,0.000624562,0.000672992,0.0111572,-0.0203748,-0.00127573,0.00062963,-0.000651638,0.00332268,-0.0110157,-0.00203241,-0.000777083,-0.00168853,0.000280566,0.00119633,-0.0096792,-0.00276163,0.00212939,0,0,0,0,0,0,0,0,0,-0.000350557,-2.06048e-07,-0.000127296,-0.000325229,-0.000312889,0.000109355,-3.84259e-05,2.66722e-05,0.000302866,0.000343922,-6.08049e-05,1.68337e-05
12,0.00051179,0.00828623,0.00484489,-0.010955,0.0484941,0.0484941,0.0484941,0.0484941,0.0484941,0.0484941,0.0484941,0.0484941,0.0484941,-0.951506,0.0753017,-0.586944,1.12051,0.00828623,0.00484489,-0.010955,-0.00348399,0.00115356,0.00478845,-0.00729788,-0.000861121,-0.000614223,0.0484941,-0.00245409,0.0340722,-0.00295787,0.00611096,-0.000103046,-0.00591195,0.0324361,-0.0422553,0.00444118,0.00738025,-0.00513315,0.00139311,-0.0183361,-0.00333835,-0.0228742,-0.00348399,0.00115356,0.00478845,-0.00729788,-0.000861121,-0.000614223,0,0,0,0,0,0,0,0,0,-0.000406154,-1.49819e-05,-4.77292e-05,-0.00031595,-0.000307346,2.96861e-05,4.24994e-07,-3.1896e-05,0.000321344,0.000304715,-2.80467e-05,-5.05439e-06
13,0.00051179,0.00117706,0.00949428,-0.00682433,0.0316637,0.0316637,0.0316637,0.0316637,0.0316637,0.0316637,0.0316637,0.0316637,0.0316637,-0.781664,0.400944,-0.742297,1.15011,0.00117706,0.00949428,-0.00682433,-0.00756885,-0.00345106,0.00103918,0.00872274,0.00476054,-0.0028,0.0316637,0.000493363,0.00227537,-0.000578575,0.00756373,0.000501743,4.38429e-05,0.0106779,-0.00395417,0.00457232,-0.00721639,-0.00135135,0.000812259,-0.00984162,0.00112031,-0.00466579,-0.00756885,-0.00345106,0.00103918,0.00872274,0.00476054,-0.0028,0,0,0,0,0,0,0,0,0,-0.000404947,-4.06158e-05,-0.000213205,-0.000366165,-0.000278438,0.000172908,6.12369e-05,7.72956e-05,0.000365108,0.000376995,-4.32037e-05,-1.36367e-05
14,0.00051179,-0.0214176,0.0164173,0.00252342,0.0544191,0.0544191,0.0544191,0.0544191,0.0544191,0.0544191,0.0544191,0.0544191,0.0544191,-0.841637,0.945581,0.0278781,1.2662,-0.0214176,0.0164173,0.00252342,-0.0313564,0.000865452,-0.0182347,-0.00766143,-0.0351968,-0.00278783,0.0544191,0.316713,3.98578,-0.051146,-0.53357,0.635408,0.956069,6.0103,-4.59977,0.00168012,-0.0710455,-0.0602578,0.878631,0.588199,-0.207215,-6.89146,-0.0313564,0.000865452,-0.0182347,-0.00766143,-0.0351968,-0.00278783,0,0,0,0,0,0,0,0,0,-0.000401057,0.00134674,0.000375603,0.00625489,-0.000366235,-0.000878408,-0.000109951,-0.00266752,0.000679761,0.00312346,0.00171297,-0.00113006
15,0.00051179,0.0478343,-0.0498054,-0.0310383,0.0171398,0.0171398,0.0171398,0.0171398,0.0171398,0.0171398,0.0171398,0.0171398,0.0171398,-0.73286,-0.512085,0.00549836,0.894061,0.0478343,-0.0498054,-0.0310383,0.012896,0.0120726,0.0985557,0.00723952,-0.019721,0.00300259,0.0171398,0.19182,1.38498,-0.0282777,-0.196102,-0.186393,0.719682,-4.47144,-1.24642,0.0393791,-0.0235623,-0.205193,-1.17173,0.269469,0.00655556,5.67421,0.012896,0.0120726,0.0985557,0.00723952,-0.019721,0.00300259,0,0,0,0,0,0,0,0,0,-0.000482604,0.000722552,-0.000128638,0.0151343,-0.000375831,-3.34134e-05,-6.79376e-05,-0.00238734,0.000213921,-0.00695188,0.000138201,-0.00025324
16,0.00051179,-0.00262114,-0.00388476,-0.00125425,0.0664874,0.0664874,0.0664874,0.0664874,0.0664874,0.0664874,0.0664874,0.0664874,0.0664874,-0.933513,-0.454394,-0.4589,1.13513,-0.00262114,-0.00388476,-0.00125425,-0.00789541,-0.000131909,-0.00285282,-0.00040648,0.00153049,-0.000139918,0.0664874,-0.0180264,0.257079,-0.000388019,-0.0214222,0.0115467,-0.0212306,0.179486,-0.266004,-0.00406106,-0.0284937,-0.00381575,0.0043929,0.0538007,-0.0142742,-0.182625,-0.00789541,-0.000131909,-0.00285282,-0.00040648,0.00153049,-0.000139918,0,0,0,0,0,0,0,0,0,-0.000511624,-7.79127e-05,0.00031223,-0.000380589,-0.000317538,-0.00031743,2.93586e-05,-6.87435e-05,0.000324786,0.000139755,4.58909e-05,-2.03743e-05
17,0.00051179,-0.0045212,-0.00370171,0.00449998,0.0404396,0.0404396,0.0404396,0.0404396,0.0404396,0.0404396,0.0404396,0.0404396,0.0404396,-0.95956,0.309802,-0.958841,1.39144,-0.0045212,-0.00370171,0.00449998,-0.00440799,-6.47753e-05,0.00126535,-0.0128106,-0.00269665,0.00017938,0.0404396,0.00232424,-0.0112137,-0.000531457,0.00294163,-9.91009e-05,0.000972897,-0.00317129,0.015834,-0.00144361,0.00202732,0.000192058,3.33313e-05,-0.00126723,-0.00168915,-0.00136202,-0.00440799,-6.47753e-05,0.00126535,-0.0128106,-0.00269665,0.00017938,0,0,0,0,0,0,0,0,0,-0.000310637,1.01748e-05,-0.000133155,-0.000343094,-0.00031882,0.000127193,-5.06774e-05,4.68356e-05,0.000303879,0.000365476,-7.18815e-05,1.30447e-05
18,0.00051179,-0.00272047,-0.000193282,-0.000357437,0.0626389,0.0626389,0.0626389,0.0626389,0.0626389,0.0626389,0.0626389,0.0626389,0.0626389,-0.937361,-0.274191,-0.894815,1.32458,-0.00272047,-0.000193282,-0.000357437,-0.00636453,0.00124534,0.0031634,-0.00991424,-0.0012787,-0.00113645,0.0626389,0.000404909,0.00491597,-0.000963531,0.005513,-8.15282e-05,0.00117444,-0.000621401,-0.00211397,-0.00188768,-5.41648e-05,-0.000175714,-0.000484217,-0.00526556,-0.00165614,0.00146306,-0.00636453,0.00124534,0.0031634,-0.00991424,-0.0012787,-0.00113645,0,0,0,0,0,0,0,0,0,-0.000328362,-6.08181e-06,0.000145804,-0.000307575,-0.000294382,-0.000142986,-3.52933e-05,-3.595e-05,0.000327542,0.000350954,2.14059e-05,9.75335e-06
19,0.00051179,0.0150208,0.00978326,0.0111086,0.075521,0.075521,0.075521,0.075521,0.075521,0.075521,0.075521,0.075521,0.075521,-0.924479,-0.31661,0.204307,0.998321,0.0150208,0.00978326,0.0111086,0.00755686,0.00278997,0.00859568,-0.00485333,-0.0102271,0.00397749,0.075521,0.228237,0.306362,-0.0341127,-0.163879,0.0402876,-0.0883788,-0.755185,-0.361671,0.0859561,0.0374513,0.0293801,-0.0736062,0.116644,-0.0128806,0.817683,0.00755686,0.00278997,0.00859568,-0.00485333,-0.0102271,0.00397749,0,0,0,0,0,0,0,0,0,-0.000463471,0.000823591,-0.000335876,-0.000416429,-0.000407809,2.26489e-05,5.0137e-05,0.000206433,0.000324331,-0.000381403,-1.49027e-05,-0.000399892
20,0.00051179,-0.00035888,0.000258904,-0.00693605,0.0809553,0.0809553,0.0809553,0.0809553,0.0809553,0.0809553,0.0809553,0.0809553,0.0809553,-0.830955,-0.456829,-0.734361,1.19936,-0.00035888,0.000258904,-0.00693605,-0.00746039,0.00222929,0.00389381,0.00306915,-0.00528472,-0.0035503,0.0809553,0.000300243,0.0116222,-0.00092458,0.0064202,-0.000952141,-0.00049752,0.0105686,-0.0103112,0.00234945,0.00306964,-0.00104447,-0.00222772,-0.00974875,0.000512112,-0.00140485,-0.00746039,0.00222929,0.00389381,0.00306915,-0.00528472,-0.0035503,0,0,0,0,0,0,0,0,0,-0.00041949,-3.02857e-05,0.000262171,-0.000347045,-0.000322724,-0.000249124,3.26081e-05,-9.45087e-05,0.000360444,0.000381007,3.12169e-05,-9.67586e-06
21,0.00051179,0.00441012,-0.00189152,0.00177956,0.0977504,0.0977504,0.0977504,0.0977504,0.0977504,0.0977504,0.0977504,0.0977504,0.0977504,-0.90225,0.540229,-0.629086,1.22542,0.00441012,-0.00189152,0.00177956,-0.00253653,-0.00132415,-0.000393342,-0.00243975,-0.00100526,-0.00106064,0.0977504,-0.000271305,0.0243552,-0.00212996,0.0186042,0.00103421,-0.00249621,0.0154795,-0.0297995,0.00620349,-0.012121,-0.00073825,0.00714052,-0.00459173,-0.00148457,-0.0243996,-0.00253653,-0.00132415,-0.000393342,-0.00243975,-0.00100526,-0.00106064,0,0,0,0,0,0,0,0,0,-0.000481211,-1.22054e-05,-0.000321567,-0.00039545,-0.000293786,0.000287026,2.06525e-05,7.06357e-05,0.000308968,0.000366555,-8.80707e-05,-1.08922e-05
22,0.00051179,-0.00284195,-0.0349311,-0.014328,0.0302449,0.0302449,0.0302449,0.0302449,0.0302449,0.0302449,0.0302449,0.0302449,0.0302449,-0.719755,0.637735,0.0411679,0.962521,-0.00284195,-0.0349311,-0.014328,-0.00182353,0.0209817,0.091805,0.0370873,0.00997356,-0.0145635,0.0302449,1.89462,14.2306,0.085184,1.31895,-1.70586,0.623466,-6.83993,-12.5219,0.396186,-0.470074,0.054691,-1.22695,-0.81395,0.346204,8.08121,-0.00182353,0.0209817,0.091805,0.0370873,0.00997356,-0.0145635,0,0,0,0,0,0,0,0,0,0.000194505,0.00639739,0.000437081,0.0173832,-0.000303561,0.000624576,-0.000900222,0.000209029,4.75794e-05,-0.0102305,0.000437616,-0.00140839
23,0.00051179,-0.0192876,-0.00365982,-0.0303063,0.0012245,0.0012245,0.0012245,0.0012245,0.0012245,0.0012245,0.0012245,0.0012245,0.0012245,-0.779718,0.998775,-0.581596,1.39419,-0.0192876,-0.00365982,-0.0303063,0.0114647,0.0121542,0.00123708,0.0119883,-0.00115298,0.00986445,0.0012245,0.000610128,0.0143181,-0.000807457,0.0187889,-0.00159885,0.000905368,0.00981316,0.00656828,-8.83825e-06,-0.0111985,-0.00104218,0.00529342,-0.0039306,0.00422988,0.0151997,0.0114647,0.0121542,0.00123708,0.0119883,-0.00115298,0.00986445,0,0,0,0,0,0,0,0,0,-0.000701509,1.63563e-05,-0.000390297,-0.000700592,-0.000230545,0.000503764,1.58799e-05,0.000256753,0.000321254,0.000722017,-0.000278705,2.6454e-05
24,0.00051179,0.00403607,0.00340131,0.0100396,0.0816541,0.0816541,0.0816541,0.0816541,0.0816541,0.0816541,0.0816541,0.0816541,0.0816541,-0.918346,0.202227,0.509481,1.0695,0.00403607,0.00340131,0.0100396,-0.000679808,0.00271958,-0.000168772,0.00494897,-0.00599901,0.00574395,0.0816541,0.00658591,-0.0809301,-0.001087,0.00146644,-3.64544e-05,-0.00820571,0.0685929,0.0769305,0.00996159,-0.0206583,0.000268841,-0.0103106,0.0157906,0.0103388,-0.0683219,-0.000679808,0.00271958,-0.000168772,0.00494897,-0.00599901,0.00574395,0,0,0,0,0,0,0,0,0,-0.000594191,-1.30458e-05,0.000133962,-0.000251225,-0.000332767,-0.000117637,3.19765e-05,-2.65491e-05,0.000298738,0.00016748,-3.07526e-05,3.78376e-05
25,0.00051179,0.0106996,0.00663692,0.00291903,0.0936669,0.0936669,0.0936669,0.0936669,0.0936669,0.0936669,0.0936669,0.0936669,0.0936669,-0.906333,0.11367,0.483593,1.03355,0.0106996,0.00663692,0.00291903,-0.00125768,0.00323,0.000569558,0.00478745,-0.00560573,0.00432421,0.0936669,0.00645591,-0.0854191,-0.000765733,-0.00223411,0.00128047,-0.00857547,0.0726993,0.073439,0.011718,-0.0176829,0.000856954,-0.0113993,0.01328,0.0107074,-0.064219,-0.00125768,0.00323,0.000569558,0.00478745,-0.00560573,0.00432421,0,0,0,0,0,0,0,0,0,-0.0005977,-1.63956e-05,8.71654e-05,-0.000253402,-0.000336463,-6.25227e-05,4.01402e-05,-1.3935e-05,0.00030262,0.000173343,-3.35528e-05,3.27711e-05
26,0.00051179,0.0085121,0.00438378,-0.0104146,0.0398888,0.0398888,0.0398888,0.0398888,0.0398888,0.0398888,0.0398888,0.0398888,0.0398888,-0.960111,0.101214,-0.578816,1.12565,0.0085121,0.00438378,-0.0104146,-0.00330224,0.000898666,0.00495262,-0.00676899,-0.00111795,0.000195103,0.0398888,-0.00294565,0.0364174,-0.00283872,-0.00063218,-4.2801e-05,-0.00657038,0.0309118,-0.0448867,0.00316451,0.00893119,-0.00531607,0.00104232,-0.0126828,-0.00358372,-0.0215395,-0.00330224,0.000898666,0.00495262,-0.00676899,-0.00111795,0.000195103,0,0,0,0,0,0,0,0,0,-0.000410095,-1.59614e-05,-6.4082e-05,-0.000317077,-0.000307972,4.46815e-05,-2.74434e-06,-3.54429e-05,0.000317968,0.000300899,-2.88973e-05,-1.66503e-06
27,0.00051179,-0.00664764,0.00245846,-0.00868741,0.122558,0.122558,0.122558,0.122558,0.122558,0.122558,0.122558,0.122558,0.122558,-0.877442,-0.360369,-0.529945,1.08656,-0.00664764,0.00245846,-0.00868741,-0.00368733,-0.000253843,0.000125224,-0.00278353,0.000915338,-0.00220994,0.122558,-0.00146113,0.0512091,-0.0011987,0.00988035,0.000159414,-0.00539172,0.0696748,-0.0447209,0.0113839,0.00190878,-0.00469924,-0.00387681,-0.0142476,-0.00472463,-0.0571106,-0.00368733,-0.000253843,0.000125224,-0.00278353,0.000915338,-0.00220994,0,0,0,0,0,0,0,0,0,-0.000462674,-2.17238e-05,0.000228243,-0.000345517,-0.000324721,-0.000242768,4.70202e-05,-6.38222e-05,0.000343584,0.000292852,2.59832e-05,-3.06544e-05
28,0.00051179,-0.0268602,0.0109253,-0.00784338,0.0806482,0.0806482,0.0806482,0.0806482,0.0806482,0.0806482,0.0806482,0.0806482,0.0806482,-0.919352,0.897367,-0.0736817,1.28682,-0.0268602,0.0109253,-0.00784338,0.00445463,-0.00984391,0.00381449,-0.0138251,-0.0175162,-0.0113926,0.0806482,-0.357869,-3.28605,0.0727884,0.5736,-0.309737,0.416953,0.976712,3.62265,0.00598018,-0.0326972,-0.0455092,0.233708,-0.551828,0.183293,-1.20258,0.00445463,-0.00984391,0.00381449,-0.0138251,-0.0175162,-0.0113926,0,0,0,0,0,0,0,0,0,-0.000792868,-0.00154858,-0.000315726,0.00242115,-0.000218058,0.00094517,0.000179266,-0.000724379,0.000400096,0.00178652,9.41248e-05,0.00107799
29,0.00051179,0.00422564,-0.00242572,0.00193543,0.0967686,0.0967686,0.0967686,0.0967686,0.0967686,0.0967686,0.0967686,0.0967686,0.0967686,-0.903231,0.572328,-0.633218,1.24272,0.00422564,-0.00242572,0.00193543,-0.00268607,-0.00140103,-0.000396114,-0.00250687,-0.00129283,-0.000948909,0.0967686,-0.000188574,0.0238268,-0.00209992,0.0183965,0.00115554,-0.0022098,0.013911,-0.029208,0.00550394,-0.0135217,-0.000505056,0.00658493,-0.00244912,-0.00131832,-0.0224313,-0.00268607,-0.00140103,-0.000396114,-0.00250687,-0.00129283,-0.000948909,0,0,0,0,0,0,0,0,0,-0.000490047,-1.18984e-05,-0.000338124,-0.000411294,-0.000293845,0.000303115,1.74601e-05,7.83226e-05,0.00030572,0.000385235,-9.63015e-05,-8.86138e-06
30,0.00051179,0.00842525,0.00132258,-0.012553,0.0948837,0.0948837,0.0948837,0.0948837,0.0948837,0.0948837,0.0948837,0.0948837,0.0948837,-0.844884,-0.0279903,-0.471878,0.968133,0.00842525,0.00132258,-0.012553,-0.000668265,-0.000814796,-0.00206151,-0.00718868,-0.000934976,0.00164045,0.0948837,-0.00110035,0.0350238,-0.00043904,0.00294069,-0.000240514,-0.00454244,0.0882973,-0.0432085,0.0190813,0.00844552,-0.00582106,-7.83839e-05,-0.0127088,-0.00678518,-0.0756659,-0.000668265,-0.000814796,-0.00206151,-0.00718868,-0.000934976,0.00164045,0,0,0,0,0,0,0,0,0,-0.000445768,-1.45884e-05,1.6245e-05,-0.000377716,-0.000315601,-2.87834e-05,5.37179e-05,-4.92367e-05,0.000352629,0.000311677,-1.83236e-05,-3.1469e-05
31,0.00051179,-0.00160935,0.0156144,-0.0180877,0.0404725,0.0404725,0.0404725,0.0404725,0.0404725,0.0404725,0.0404725,0.0404725,0.0404725,-0.790472,0.865603,-0.554456,1.29674,-0.00160935,0.0156144,-0.0180877,-0.00836055,0.000565395,0.00469866,-0.00233801,0.018621,0.00684511,0.0404725,0.000852719,-0.00134656,-0.000930361,0.00959635,-0.000712763,0.000281557,0.0185272,0.00366867,0.0038719,-0.031602,-0.00133005,0.00395562,0.00639119,0.00178257,-0.0043951,-0.00836055,0.000565395,0.00469866,-0.00233801,0.018621,0.00684511,0,0,0,0,0,0,0,0,0,-0.000657916,-4.06012e-05,-0.000499982,-0.000635378,-0.000228548,0.000496333,4.60744e-06,0.000257558,0.000336349,0.00068518,-8.4649e-05,4.00764e-05
32,0.00051179,-0.0368605,-0.117418,0.629383,0.000640773,0.000640773,0.000640773,0.000640773,0.000640773,0.000640773,0.000640773,0.000640773,0.000640773,-0.750641,-0.338852,-0.237223,0.857063,-0.0368605,-0.117418,0.629383,0.0636628,-0.0152826,-0.00806832,0.0538788,0.0493184,-0.052439,0.000640773,-0.000617489,-0.00961085,-0.00115221,0.0689804,-0.00417815,0.000341319,-0.542639,0.0506495,-0.000856372,-0.138524,-0.010196,0.0427704,0.186961,-0.0231125,-0.129514,0.0636628,-0.0152826,-0.00806832,0.0538788,0.0493184,-0.052439,0,0,0,0,0,0,0,0,0,-0.00066065,0.000268477,0.000527172,-0.00157306,-0.000350291,-0.00069152,0.000218363,0.000410087,0.000385098,0.00149579,-1.88633e-05,-0.000424507
33,0.00051179,0.00207063,0.0023437,-0.00338712,0.111273,0.111273,0.111273,0.111273,0.111273,0.111273,0.111273,0.111273,0.111273,-0.861273,0.291585,-0.693051,1.1433,0.00207063,0.0023437,-0.00338712,-0.00496637,-0.000564219,0.00161912,0.00247251,-0.000963586,-0.00351811,0.111273,-9.045e-06,0.0129927,-0.00148772,0.013682,0.00120845,-0.00112395,0.0075171,-0.0162718,0.00403677,-0.00377671,-0.00122992,0.00335164,-0.012249,0.000177193,-0.00748162,-0.00496637,-0.000564219,0.00161912,0.00247251,-0.000963586,-0.00351811,0,0,0,0,0,0,0,0,0,-0.000398614,-2.2792e-05,-0.000170288,-0.000332797,-0.000295425,0.000149769,3.46315e-05,3.25969e-05,0.000340566,0.000337748,-5.4532e-05,-1.46195e-05
34,0.00051179,0.00398726,0.00469383,-0.0414966,0.0157257,0.0157257,0.0157257,0.0157257,0.0157257,0.0157257,0.0157257,0.0157257,0.0157257,-0.984274,-0.110037,-0.283678,1.03023,0.00398726,0.00469383,-0.0414966,-0.00765977,0.00283508,-0.0083531,0.00333697,-0.00834506,-0.0013049,0.0157257,-0.0558758,0.163576,0.00706185,0.012048,-0.0866187,-0.0299139,-0.0468946,-0.0809449,-0.037619,0.0306317,0.00262458,-0.0527811,-0.0473735,0.00143719,0.141172,-0.00765977,0.00283508,-0.0083531,0.00333697,-0.00834506,-0.0013049,0,0,0,0,0,0,0,0,0,-0.000519976,-0.000204964,5.00478e-05,-0.000378154,-0.000318522,4.89214e-05,-5.86962e-05,-3.63126e-06,0.000326686,-4.51633e-06,-5.35736e-05,0.000113375
35,0.00051179,0.000491472,-0.00352024,0.00550434,0.102047,0.102047,0.102047,0.102047,0.102047,0.102047,0.102047,0.102047,0.102047,-0.852047,-0.115609,0.889185,1.23693,0.000491472,-0.00352024,0.00550434,-0.000746598,-0.00127406,-0.000834486,-0.00035598,-0.000514859,0.0056789,0.102047,0.00102504,-0.00349414,-8.37371e-05,-0.00120743,0.000273872,0.00031516,0.00257223,0.00272879,-0.00043072,0.000414015,-0.00031662,-3.87093e-05,0.00431366,-0.000578281,-0.00803786,-0.000746598,-0.00127406,-0.000834486,-0.00035598,-0.000514859,0.0056789,0,0,0,0,0,0,0,0,0,-0.000687726,-3.90668e-06,-6.91087e-05,-0.000242496,-0.00033387,5.55307e-05,-9.23237e-06,1.90263e-05,0.000330403,0.000237303,-2.73411e-05,2.02042e-05
36,0.00051179,0.0203049,0.0115728,0.0106939,0.106681,0.106681,0.106681,0.106681,0.106681,0.106681,0.106681,0.106681,0.106681,-0.856682,-0.296457,0.167623,0.921893,0.0203049,0.0115728,0.0106939,0.00329895,-0.00387742,0.000165388,-0.00251476,-0.000826988,-0.000449538,0.106681,0.327675,0.652241,-0.077225,-0.246739,0.133895,-0.132714,-1.58861,-0.806441,0.112386,0.0360196,0.0509826,-0.151334,0.199147,-0.00449081,1.72925,0.00329895,-0.00387742,0.000165388,-0.00251476,-0.000826988,-0.000449538,0,0,0,0,0,0,0,0,0,-0.000384346,0.0011519,-0.000657994,-0.000895537,-0.000419909,-0.00015303,4.63896e-05,0.000382567,0.000315547,-0.000429953,0.000118989,-0.000527669
37,0.00051179,-0.0206729,0.00671338,-0.00223735,0.0983985,0.0983985,0.0983985,0.0983985,0.0983985,0.0983985,0.0983985,0.0983985,0.0983985,-0.901601,-0.0382085,-0.401702,0.98778,-0.0206729,0.00671338,-0.00223735,-0.00258469,-0.000711423,-0.000530059,-0.00232369,-0.00192135,-0.00201009,0.0983985,-0.0102642,0.113737,0.000812061,-0.0283153,-0.00189951,-0.0165475,0.0933015,-0.0911651,-0.00675492,0.00735153,-0.00514797,-0.006979,0.0142504,-0.0147008,-0.0840851,-0.00258469,-0.000711423,-0.000530059,-0.00232369,-0.00192135,-0.00201009,0,0,0,0,0,0,0,0,0,-0.000473686,-1.96617e-05,2.09923e-05,-0.000431672,-0.000318015,-1.99859e-05,-8.10332e-07,-5.05824e-05,0.000333823,0.000260896,-2.01107e-05,-3.89715e-05
38,0.00051179,0.0649047,0.003602,-0.00557125,0.0205236,0.0205236,0.0205236,0.0205236,0.0205236,0.0205236,0.0205236,0.0205236,0.0205236,-0.770524,-0.685847,0.265509,1.06517,0.0649047,0.003602,-0.00557125,0.0144843,0.0136153,0.0110178,-0.0264468,-0.0117708,-0.0115011,0.0205236,0.00213118,-0.337287,0.00477351,-0.214287,-0.00204281,-0.0123203,1.03221,0.274425,-0.0593783,-0.0775953,-0.0226068,0.145534,0.28828,0.0762062,-1.17218,0.0144843,0.0136153,0.0110178,-0.0264468,-0.0117708,-0.0115011,0,0,0,0,0,0,0,0,0,-0.000290774,8.82751e-05,-0.000497317,-0.00149581,-0.000238413,0.000681205,-0.000423928,-0.000169014,0.000342801,0.00148279,-0.000174762,0.000328723
39,0.00051179,-0.0524458,-0.072566,-0.0481161,0.0283704,0.0283704,0.0283704,0.0283704,0.0283704,0.0283704,0.0283704,0.0283704,0.0283704,-0.849259,-0.97163,-0.266108,1.31762,-0.0524458,-0.072566,-0.0481161,-0.0140564,-0.00189799,-0.0434231,-0.0112465,-0.0319082,-0.0292159,0.0283704,-0.0209704,0.537558,-0.0107091,0.103237,-0.312658,0.0392969,-0.258592,-0.172454,0.00198753,0.129448,-0.0182949,-0.478064,-0.160119,0.109381,0.784772,-0.0140564,-0.00189799,-0.0434231,-0.0112465,-0.0319082,-0.0292159,0,0,0,0,0,0,0,0,0,-0.000929497,-0.000216533,0.000814331,-0.00108677,-0.000472838,-0.000940402,-8.76935e-05,-0.000832014,0.000324257,0.00104551,0.000329983,0.000359425
40,0.00051179,0.0148868,0.00886372,-0.00810457,0.0930854,0.0930854,0.0930854,0.0930854,0.0930854,0.0930854,0.0930854,0.0930854,0.0930854,-0.866515,-0.906915,0.481767,1.34367,0.0148868,0.00886372,-0.00810457,-0.0021113,-0.00255639,-0.00523322,-0.00119473,-0.00474674,0.00559741,0.0930854,0.000635341,0.0436084,0.00147296,-0.0392773,0.0073802,0.00277523,-0.00768458,-0.0658753,-0.000464575,-0.013817,-0.00285318,-0.0229206,0.0442306,-0.00240293,0.0387097,-0.0021113,-0.00255639,-0.00523322,-0.00119473,-0.00474674,0.00559741,0,0,0,0,0,0,0,0,0,-0.000309311,-7.44811e-06,-0.000604292,-0.000542213,-0.000318909,0.000593457,-8.36485e-06,-0.000140494,0.000323415,0.000517633,6.44952e-05,1.59041e-05
41,0.00051179,0.00913574,0.00408912,0.0052624,0.071364,0.071364,0.071364,0.071364,0.071364,0.071364,0.071364,0.071364,0.071364,-0.821364,0.801524,0.498287,1.25115,0.00913574,0.00408912,0.0052624,0.0040874,-0.00140328,0.00101561,-9.95817e-05,0.0151842,0.0041616,0.071364,0.00151737,-0.021883,-0.00165939,0.0249207,-0.000396321,-0.00163021,0.0321901,0.0131436,-0.0075921,0.0207618,0.00274284,-9.41399e-05,-0.0497716,0.00264005,-0.0373584,0.0040874,-0.00140328,0.00101561,-9.95817e-05,0.0151842,0.0041616,0,0,0,0,0,0,0,0,0,-0.000395939,2.25838e-05,0.000489427,-0.000523145,-0.000384981,-0.000520053,-4.38985e-05,0.000152456,0.000318035,0.000516999,2.68145e-05,2.85682e-05
42,0.00051179,0.00560507,0.011524,0.00645721,0.0301664,0.0301664,0.0301664,0.0301664,0.0301664,0.0301664,0.0301664,0.0301664,0.0301664,-0.969834,0.206045,0.185178,1.00862,0.00560507,0.011524,0.00645721,0.0186397,-0.0130622,-0.000146823,0.00247913,0.0176709,0.0110915,0.0301664,0.130783,0.393739,0.0414383,0.142057,0.0901091,-0.0147345,-0.293948,-0.489453,0.084679,-0.0229977,-0.0164513,-0.0513308,-0.130583,-0.0362952,0.338822,0.0186397,-0.0130622,-0.000146823,0.00247913,0.0176709,0.0110915,0,0,0,0,0,0,0,0,0,-0.000506625,0.000503217,0.000127441,-7.26609e-05,-0.000304813,0.00015632,0.000191894,-5.67189e-05,0.000320561,-7.61525e-05,6.89151e-05,-0.000369915
43,0.00051179,-0.0029538,0.000427078,0.00459179,0.0445766,0.0445766,0.0445766,0.0445766,0.0445766,0.0445766,0.0445766,0.0445766,0.0445766,-0.955423,0.0871287,0.804526,1.25207,-0.0029538,0.000427078,0.00459179,-0.00298588,-0.00056588,-0.000674574,0.00949291,-0.000972342,0.0030385,0.0445766,0.000980154,-0.0123688,0.000633962,-0.00423271,0.000798453,-0.0011345,0.024893,0.0145241,0.00042416,-0.000374894,-0.00077117,-0.00104048,0.00418053,0.000671316,-0.0284443,-0.00298588,-0.00056588,-0.000674574,0.00949291,-0.000972342,0.0030385,0,0,0,0,0,0,0,0,0,-0.000669621,-2.34377e-05,3.35613e-05,-0.000240719,-0.000333453,-3.28805e-05,3.61763e-05,9.28391e-06,0.000300176,0.000222628,-2.6719e-05,5.14005e-06
44,0.00051179,-0.00604543,-0.0089875,0.0133602,0.0164042,0.0164042,0.0164042,0.0164042,0.0164042,0.0164042,0.0164042,0.0164042,0.0164042,-0.982182,0.983596,-0.524278,1.4856,-0.00604543,-0.0089875,0.0133602,0.017696,0.00769832,-0.00961231,0.0137512,-0.0175795,-0.0134513,0.0164042,0.00631852,-0.0779529,-0.0017504,0.00454239,0.00188531,0.00534685,-0.0196239,0.0821131,-0.000929045,-0.00209861,0.00183786,-0.0158702,0.00654373,0.00356219,0.0221338,0.017696,0.00769832,-0.00961231,0.0137512,-0.0175795,-0.0134513,0,0,0,0,0,0,0,0,0,-0.000741757,8.89794e-05,-0.000543917,-0.000810255,-0.000313515,0.000603397,3.30173e-05,9.40998e-05,0.000185452,0.000767601,-0.000251516,-8.05389e-05
45,0.00051179,0.00395009,0.000198971,-0.000580317,0.101179,0.101179,0.101179,0.101179,0.101179,0.101179,0.101179,0.101179,0.101179,-0.898821,0.292215,-0.747788,1.20518,0.00395009,0.000198971,-0.000580317,-0.00311713,-0.00183475,-0.000197005,-0.000817286,-0.00183583,-0.000803465,0.101179,-0.000636622,0.0132448,-0.00161391,0.0119168,0.000911763,-0.000210468,-0.00212383,-0.0181067,0.000801099,-0.00208698,-0.000704062,0.00269019,-0.0100288,-0.000422504,1.39594e-05,-0.00311713,-0.00183475,-0.000197005,-0.000817286,-0.00183583,-0.000803465,0,0,0,0,0,0,0,0,0,-0.000379659,-1.30043e-05,-0.000162692,-0.000338731,-0.000302399,0.000128205,5.68358e-06,3.5469e-05,0.000328377,0.000334656,-6.0868e-05,-3.65332e-07
46,0.00051179,-0.00696599,0.0147919,-0.00669146,0.113814,0.113814,0.113814,0.113814,0.113814,0.113814,0.113814,0.113814,0.113814,-0.863814,0.790161,-0.0112907,1.17075,-0.00696599,0.0147919,-0.00669146,0.00133746,-0.000321954,0.00697563,-0.0124681,-0.00144217,-0.0192954,0.113814,-0.146331,-1.46969,0.0130523,0.0988545,0.0380063,0.619938,4.19414,1.43865,0.00575821,0.036461,-0.0975599,-0.264558,-0.150107,0.0461635,-3.92289,0.00133746,-0.000321954,0.00697563,-0.0124681,-0.00144217,-0.0192954,0,0,0,0,0,0,0,0,0,-0.000642367,-0.000580926,1.82318e-05,0.00520446,-0.000278974,0.000109071,0.000110491,-0.00130361,0.000511415,0.00106468,0.000313588,0.000278381
47,0.00051179,-0.00534084,0.00886397,0.000542194,0.0600604,0.0600604,0.0600604,0.0600604,0.0600604,0.0600604,0.0600604,0.0600604,0.0600604,-0.81006,0.58137,0.408485,1.07752,-0.00534084,0.00886397,0.000542194,-0.000175877,-0.0047883,0.00682705,-0.00783821,0.000999066,0.013436,0.0600604,0.0015967,-0.0772587,-0.00155025,0.0134333,-0.0110664,-0.00837131,0.174234,0.093666,-0.0216097,-0.010141,0.00306276,0.0418401,-0.0121562,0.0183605,-0.216616,-0.000175877,-0.0047883,0.00682705,-0.00783821,0.000999066,0.013436,0,0,0,0,0,0,0,0,0,-0.000456996,2.7548e-06,0.000422607,-0.000450294,-0.000377381,-0.000485993,-0.000151589,2.02012e-05,0.000306457,0.000434851,2.0417e-05,0.000154633
48,0.00051179,-0.00134859,-0.00267026,-0.00228585,0.00836934,0.00836934,0.00836934,0.00836934,0.00836934,0.00836934,0.00836934,0.00836934,0.00836934,-0.929822,0.804489,-0.991631,1.57959,-0.00134859,-0.00267026,-0.00228585,-0.00297925,0.000871336,0.000316851,-0.00305644,-0.00589394,0.00490903,0.00836934,0.00299735,-0.0184463,-0.000444643,0.000779782,0.000132309,4.9375e-05,0.00126279,0.0196625,-0.00016831,0.00300366,0.000106701,-0.000284698,-0.00111319,-0.00160945,0.00130775,-0.00297925,0.000871336,0.000316851,-0.00305644,-0.00589394,0.00490903,0,0,0,0,0,0,0,0,0,-0.000394389,-1.66999e-08,-0.000242966,-0.000535791,-0.000334287,0.000247233,-1.6231e-05,0.000100503,0.000259973,0.000539453,-0.000158376,1.63907e-05
49,0.00051179,0.00305045,-0.00695291,0.00499063,0.0409111,0.0409111,0.0409111,0.0409111,0.0409111,0.0409111,0.0409111,0.0409111,0.0409111,-0.959089,0.816236,-0.897809,1.54666,0.00305045,-0.00695291,0.00499063,0.000153089,-0.00100639,0.00404322,-0.00438408,-0.00929621,0.000104633,0.0409111,0.00198086,-0.0125881,-0.000807337,0.00189647,0.00179342,0.00131305,-0.00652746,0.00774427,-0.000543224,0.00421453,0.000169137,-0.000222973,0.000841909,-0.00168838,0.0017598,0.000153089,-0.00100639,0.00404322,-0.00438408,-0.00929621,0.000104633,0,0,0,0,0,0,0,0,0,-0.000446245,1.57202e-05,-0.000289846,-0.000507614,-0.000333333,0.000271709,-1.9586e-05,8.31602e-05,0.000242375,0.000561177,-0.000174431,-2.86823e-06
50,0.00051179,-0.0054216,0.00165987,0.000328723,0.0286273,0.0286273,0.0286273,0.0286273,0.0286273,0.0286273,0.0286273,0.0286273,0.0286273,-0.971373,0.341441,0.903764,1.37001,-0.0054216,0.00165987,0.000328723,-0.000934781,-0.000577524,-0.00280466,0.0113089,-0.00313984,0.00481596,0.0286273,0.00111242,0.000345961,0.000353999,-0.00533963,0.000245521,0.000106547,0.00773819,0.00483012,0.00118846,-0.00248895,-0.000396599,-0.000313636,0.00616872,-0.00173153,-0.00775328,-0.000934781,-0.000577524,-0.00280466,0.0113089,-0.00313984,0.00481596,0,0,0,0,0,0,0,0,0,-0.000673816,-1.72958e-05,0.000138993,-0.000296128,-0.000320846,-0.000141228,4.4303e-05,7.14622e-06,0.000288263,0.000269147,-4.25106e-05,-2.76184e-06
51,0.00051179,0.00180786,-0.00244795,0.00393359,0.0585655,0.0585655,0.0585655,0.0585655,0.0585655,0.0585655,0.0585655,0.0585655,0.0585655,-0.832217,-0.568768,0.941434,1.37927,0.00180786,-0.00244795,0.00393359,-0.00177841,0.000897923,-0.00164993,0.000186495,-0.00276729,0.0053558,0.0585655,0.00106247,-0.00126133,-0.000300638,-0.00158631,-3.44597e-05,0.000505745,-0.000228932,-0.000512074,-0.00106965,6.57815e-05,-0.000348779,0.000719322,0.00396848,-0.00109417,-0.00442398,-0.00177841,0.000897923,-0.00164993,0.000186495,-0.00276729,0.0053558,0,0,0,0,0,0,0,0,0,-0.000627927,-6.65188e-06,-0.000237128,-0.000346075,-0.000326717,0.000243101,-7.48793e-06,-1.75404e-05,0.000347443,0.000334633,-1.36203e-05,1.8236e-05
52,0.00051179,-0.00377463,0.00669695,0.00604446,0.114745,0.114745,0.114745,0.114745,0.114745,0.114745,0.114745,0.114745,0.114745,-0.864745,0.883796,-0.620321,1.38336,-0.00377463,0.00669695,0.00604446,-0.00466739,-0.00482493,0.000281874,0.00018213,0.00107983,-0.00135182,0.114745,0.00115366,0.00776105,-0.00113892,0.00555682,0.00170194,0.000152972,-0.00102631,-0.00568836,0.000933958,-0.0175146,0.000546033,0.0014893,0.00526078,0.00140465,-0.00650744,-0.00466739,-0.00482493,0.000281874,0.00018213,0.00107983,-0.00135182,0,0,0,0,0,0,0,0,0,-0.000624083,-1.48631e-05,-0.00044597,-0.000617275,-0.000273222,0.000386331,8.28598e-06,0.000165783,0.000286482,0.000621624,-0.000149525,2.96972e-06
53,0.00051179,0.00205534,-0.00268051,0.0023782,0.05859,0.05859,0.05859,0.05859,0.05859,0.05859,0.05859,0.05859,0.05859,-0.89294,-0.371815,0.94141,1.34976,0.00205534,-0.00268051,0.0023782,-0.00305975,-0.000536259,-0.00149591,0.00441074,-0.000901345,0.00544104,0.05859,0.00120516,-0.00220092,-0.000239424,-0.00138484,-0.000129135,0.000436254,0.00195,0.000274709,-0.000396,0.00079765,-0.000115978,0.000587086,0.0032677,-0.00122136,-0.00491528,-0.00305975,-0.000536259,-0.00149591,0.00441074,-0.000901345,0.00544104,0,0,0,0,0,0,0,0,0,-0.00066819,-1.66343e-05,-0.000176142,-0.000277755,-0.000338847,0.000168385,1.27123e-05,2.86034e-06,0.000326961,0.000267159,-1.30336e-05,1.37371e-05
54,0.00051179,-0.0102961,-0.00359636,0.00473623,0.112291,0.112291,0.112291,0.112291,0.112291,0.112291,0.112291,0.112291,0.112291,-0.862291,0.604265,0.540158,1.18341,-0.0102961,-0.00359636,0.00473623,-0.00409278,-0.000366319,-0.000106882,-0.0035522,0.00257319,0.00908071,0.112291,0.00255717,-0.0422349,-0.0012564,0.0201176,-0.00211869,-0.00429739,0.0621637,0.0546497,-0.00389056,-0.00300497,0.000349056,0.00650525,-0.0135162,0.0061412,-0.0734052,-0.00409278,-0.000366319,-0.000106882,-0.0035522,0.00257319,0.00908071,0,0,0,0,0,0,0,0,0,-0.000499777,-1.48821e-05,0.00037807,-0.000365219,-0.000352407,-0.000394298,-4.44179e-05,3.94253e-05,0.000302494,0.000321176,-1.02029e-05,6.89055e-05
55,0.00051179,0.00169795,-0.00551733,0.00587295,0.0982498,0.0982498,0.0982498,0.0982498,0.0982498,0.0982498,0.0982498,0.0982498,0.0982498,-0.90175,0.58842,-0.729367,1.30053,0.00169795,-0.00551733,0.00587295,-0.00279523,-0.00153232,0.000113774,-0.00162063,-0.00210477,-1.58956e-05,0.0982498,-0.000242457,0.00936035,-0.00144889,0.0125616,0.00105977,-0.000240494,-0.00859723,-0.0121181,0.000619931,-0.00418037,-0.000115436,0.00211839,-0.0028639,-0.000342079,0.000605891,-0.00279523,-0.00153232,0.000113774,-0.00162063,-0.00210477,-1.58956e-05,0,0,0,0,0,0,0,0,0,-0.000455119,-1.01157e-05,-0.00030071,-0.000421978,-0.000300908,0.000270898,6.92189e-08,8.03589e-05,0.000304863,0.000420711,-0.000102561,3.28285e-06
56,0.00051179,-0.0175126,0.0152671,0.00535205,0.0164583,0.0164583,0.0164583,0.0164583,0.0164583,0.0164583,0.0164583,0.0164583,0.0164583,-0.766458,0.672957,0.438424,1.1102,-0.0175126,0.0152671,0.00535205,0.0159423,0.00952382,0.00356586,-0.0101464,0.0134364,-0.0021169,0.0164583,0.000631765,0.00718861,-0.000898652,0.027842,-0.00161717,-0.00112572,0.0844306,0.0119411,-0.018875,0.0402946,0.00634737,0.0159349,-0.0834037,0.0106484,-0.105718,0.0159423,0.00952382,0.00356586,-0.0101464,0.0134364,-0.0021169,0,0,0,0,0,0,0,0,0,-0.000427552,8.73884e-05,0.00047285,-0.000444143,-0.000409061,-0.000386598,-0.000140588,0.000124917,0.000334889,0.000468544,7.29206e-05,4.71757e-05
57,0.00051179,-0.00287586,-0.00215438,-0.00366249,0.0207332,0.0207332,0.0207332,0.0207332,0.0207332,0.0207332,0.0207332,0.0207332,0.0207332,-0.979267,-0.20488,0.886386,1.33664,-0.00287586,-0.00215438,-0.00366249,-0.00413322,-0.00121978,-0.000285318,0.0115063,-0.000255655,0.00304906,0.0207332,0.00163414,-0.00815992,0.000337429,-0.00577207,8.34741e-05,-0.000585273,0.0200466,0.0109523,0.00176646,0.00235616,-0.000221928,-0.000290073,0.00557029,-0.000999238,-0.0160941,-0.00413322,-0.00121978,-0.000285318,0.0115063,-0.000255655,0.00304906,0,0,0,0,0,0,0,0,0,-0.000676028,-2.72918e-05,-0.000114438,-0.000245217,-0.000346059,0.000105615,5.15674e-05,1.42408e-05,0.000302851,0.000236511,-1.90167e-05,-4.5472e-06
58,0.00051179,-0.000112772,0.016797,-0.00223953,0.0886351,0.0886351,0.0886351,0.0886351,0.0886351,0.0886351,0.0886351,0.0886351,0.0886351,-0.911365,-0.820623,-0.0812393,1.22907,-0.000112772,0.016797,-0.00223953,0.00206614,0.0105024,0.0101886,-0.0142781,-0.00294151,-0.00427976,0.0886351,-0.461436,-4.02233,-0.0917193,-0.594675,0.141468,0.292085,0.740005,3.88098,-0.00407292,-0.0988727,0.0445082,-0.045395,0.676751,0.164657,-0.69237,0.00206614,0.0105024,0.0101886,-0.0142781,-0.00294151,-0.00427976,0,0,0,0,0,0,0,0,0,-0.000785612,-0.00193068,4.40222e-05,0.00201578,-0.000422323,-0.000856191,0.000274411,0.00041073,0.000431716,0.00100695,4.9371e-06,0.00116805
59,0.00051179,-0.000462849,-0.0321932,0.0220175,0.0112088,0.0112088,0.0112088,0.0112088,0.0112088,0.0112088,0.0112088,0.0112088,0.0112088,-0.761209,-0.560768,-0.575148,1.10666,-0.000462849,-0.0321932,0.0220175,-0.00575821,0.00803917,0.002803,0.0171229,-0.00904758,0.0102614,0.0112088,0.000319675,0.00209799,-0.000473015,0.0231231,-2.46063e-05,0.000340711,0.021787,-0.00161053,0.0102554,0.0332066,-0.00459026,-0.00229844,-0.0241365,-0.00552322,-0.041506,-0.00575821,0.00803917,0.002803,0.0171229,-0.00904758,0.0102614,0,0,0,0,0,0,0,0,0,-0.000510797,-5.79749e-05,0.00035972,-0.000392779,-0.000370646,-0.000284059,0.000106109,-0.000157256,0.000382915,0.000424217,2.08773e-05,-7.09112e-06
60,0.00051179,0.00112874,0.00252246,-0.00795299,0.0741336,0.0741336,0.0741336,0.0741336,0.0741336,0.0741336,0.0741336,0.0741336,0.0741336,-0.824134,0.365601,-0.905696,1.27795,0.00112874,0.00252246,-0.00795299,-0.00661058,0.0011523,0.00182205,-5.51095e-05,0.000537102,-0.002036,0.0741336,0.000825062,0.000184939,-0.000465475,0.00293529,0.000103026,0.00101683,-0.00260131,-0.0014167,-0.000132279,-0.0015119,-0.000134982,0.000590781,-0.00394585,-0.000328347,0.00996352,-0.00661058,0.0011523,0.00182205,-5.51095e-05,0.000537102,-0.002036,0,0,0,0,0,0,0,0,0,-0.000337988,-1.93077e-05,-0.000160718,-0.000360362,-0.000298196,0.000167586,8.68296e-06,5.73378e-05,0.000351556,0.000388751,-5.33166e-05,-2.20182e-06
61,0.00051179,0.0189507,-0.0201235,-0.015203,0.0557933,0.0557933,0.0557933,0.0557933,0.0557933,0.0557933,0.0557933,0.0557933,0.0557933,-0.805793,-0.136191,-0.0260646,0.817637,0.0189507,-0.0201235,-0.015203,0.00757104,-0.00139099,-0.0149015,-0.00164378,-0.0118641,-7.60853e-05,0.0557933,-0.103504,-0.697255,0.0502662,0.406285,-0.313986,0.179071,0.61128,0.992291,-0.0379345,0.123084,-0.0861181,0.527412,-0.509246,0.0213096,-1.12349,0.00757104,-0.00139099,-0.0149015,-0.00164378,-0.0118641,-7.60853e-05,0,0,0,0,0,0,0,0,0,-0.000596605,-0.000347805,0.000264767,0.00180423,-0.000328505,0.000223984,-6.60328e-05,-0.000890366,0.00041914,-0.000162532,-8.9457e-05,0.000238026
62,0.00051179,0.00626446,0.0258675,-0.00439674,0.0586866,0.0586866,0.0586866,0.0586866,0.0586866,0.0586866,0.0586866,0.0586866,0.0586866,-0.808687,0.0451092,0.302138,0.864463,0.00626446,0.0258675,-0.00439674,-0.0003867,0.00145805,-0.00126265,0.0061905,-0.0042932,-0.00265629,0.0586866,0.0022098,-0.150451,0.00116009,-0.0223904,0.0102656,-0.0115014,0.263364,0.133921,0.028296,-0.0500072,-0.00477932,-0.0561878,0.04653,0.0195646,-0.202779,-0.0003867,0.00145805,-0.00126265,0.0061905,-0.0042932,-0.00265629,0,0,0,0,0,0,0,0,0,-0.000545599,-5.22898e-05,6.32802e-05,-0.000423756,-0.000341142,-3.70988e-05,0.000111027,-4.0869e-05,0.000322133,0.000296115,-4.98562e-05,2.31361e-05
63,0.00051179,-0.0289991,0.0643728,-0.0330553,0.0309338,0.0309338,0.0309338,0.0309338,0.0309338,0.0309338,0.0309338,0.0309338,0.0309338,-0.719066,0.500363,-0.0116834,0.876103,-0.0289991,0.0643728,-0.0330553,-0.0126713,-0.0285644,0.0623529,-0.0012552,-0.00170352,0.0109936,0.0309338,-0.439421,-2.71996,-0.0846987,-0.86449,0.229853,0.618805,-6.73227,2.5191,-0.119692,-0.0496755,0.262633,-1.08348,0.849793,-0.117832,7.8488,-0.0126713,-0.0285644,0.0623529,-0.0012552,-0.00170352,0.0109936,0,0,0,0,0,0,0,0,0,-0.000774212,-0.00147599,-0.000446923,0.0163879,-0.000355983,-0.000685708,0.000179741,0.00299539,6.80611e-05,-0.0095763,-0.0003861,0.000250281
64,0.00051179,-0.0025627,-0.000636131,0.00242843,0.0316655,0.0316655,0.0316655,0.0316655,0.0316655,0.0316655,0.0316655,0.0316655,0.0316655,-0.968334,-0.111888,0.82234,1.27532,-0.0025627,-0.000636131,0.00242843,-0.00408851,-0.00166912,-0.000609195,0.0111733,-0.000676419,0.00257541,0.0316655,0.00142063,-0.0132128,0.000574775,-0.00477551,6.90566e-05,-0.0013131,0.0273827,0.0157064,0.000967188,0.00145964,-0.000562523,-0.000468418,0.003952,0.000489391,-0.0293428,-0.00408851,-0.00166912,-0.000609195,0.0111733,-0.000676419,0.00257541,0,0,0,0,0,0,0,0,0,-0.000669606,-2.78057e-05,-7.16356e-05,-0.000234969,-0.000341529,6.06921e-05,4.62364e-05,1.4832e-05,0.000303231,0.000215746,-2.72214e-05,8.5773e-07
65,0.00051179,-0.00465613,-0.000987451,0.00076977,0.0571062,0.0571062,0.0571062,0.0571062,0.0571062,0.0571062,0.0571062,0.0571062,0.0571062,-0.942894,-0.0447081,-0.921978,1.3195,-0.00465613,-0.000987451,0.00076977,-0.00752013,-0.000934394,0.00340147,-0.010694,-0.00191044,-9.75104e-05,0.0571062,0.000938609,0.000747698,-0.000802271,0.00482618,0.000104872,0.00116222,-0.00188132,0.00380356,-0.00188685,0.000735119,-5.55301e-05,0.000414686,-0.00457384,-0.00162659,0.000696859,-0.00752013,-0.000934394,0.00340147,-0.010694,-0.00191044,-9.75104e-05,0,0,0,0,0,0,0,0,0,-0.000300169,-8.80786e-06,2.20864e-05,-0.000304004,-0.000301803,-3.9453e-05,-3.88043e-05,-3.02358e-06,0.000325225,0.000349641,-1.66361e-05,1.54792e-05
66,0.00051179,-0.0019815,0.00297229,-0.00099006,0.12371,0.12371,0.12371,0.12371,0.12371,0.12371,0.12371,0.12371,0.12371,-0.87371,-0.759516,0.654223,1.32975,-0.0019815,0.00297229,-0.00099006,0.00247322,-0.00150837,0.00110684,0.00197222,0.00197712,0.00528914,0.12371,0.00133856,-0.0112924,0.000536866,-0.00411889,0.00117999,-0.000897638,0.0185782,0.0120939,-2.09082e-05,-0.00447538,-0.00145541,-0.00225179,0.00562199,-5.74924e-05,-0.0153363,0.00247322,-0.00150837,0.00110684,0.00197222,0.00197712,0.00528914,0,0,0,0,0,0,0,0,0,-0.000463463,6.37266e-06,-0.000423505,-0.000390465,-0.0003353,0.00041379,-2.92969e-06,-1.72023e-05,0.000328958,0.000392557,2.24194e-05,1.3472e-05
67,0.00051179,-0.000917228,-0.00849565,-0.010044,0.00727226,0.00727226,0.00727226,0.00727226,0.00727226,0.00727226,0.00727226,0.00727226,0.00727226,-0.757272,0.313112,0.357112,0.893884,-0.000917228,-0.00849565,-0.010044,0.00493006,-0.00447094,0.00148831,-0.00871313,-0.00992981,-0.0159305,0.00727226,0.000769392,-0.00325767,-0.000840418,-0.0258482,-0.00383453,-0.000934843,0.158067,0.00800943,-0.019202,-0.0603317,-0.002449,0.0182583,0.0946755,0.0184638,-0.166281,0.00493006,-0.00447094,0.00148831,-0.00871313,-0.00992981,-0.0159305,0,0,0,0,0,0,0,0,0,-0.000522785,5.12077e-05,0.000264572,-0.000463948,-0.000357354,-0.000317686,-0.000116865,-0.000115484,0.000329174,0.000469483,-8.30426e-06,3.53769e-05
68,0.00051179,-0.00677953,-0.00272566,-0.00937646,0.0160616,0.0160616,0.0160616,0.0160616,0.0160616,0.0160616,0.0160616,0.0160616,0.0160616,-0.983938,0.22024,-0.831549,1.30695,-0.00677953,-0.00272566,-0.00937646,-0.00109884,0.000521775,0.00135686,-0.00991088,-0.00281281,0.00218892,0.0160616,-0.00119434,0.021962,-0.0018444,0.0114485,0.000578568,0.00103286,0.00747353,-0.0157611,-0.00157155,0.000883456,-0.000474732,0.00279506,-0.0096063,-0.00203032,-0.00089214,-0.00109884,0.000521775,0.00135686,-0.00991088,-0.00281281,0.00218892,0,0,0,0,0,0,0,0,0,-0.000341244,4.24603e-06,-0.00011663,-0.00032182,-0.000312859,0.000103404,-4.17002e-05,2.5438e-05,0.000303194,0.000345717,-5.83134e-05,1.65049e-05
69,0.00051179,-0.0197787,-0.0234345,0.00924018,0.0325995,0.0325995,0.0325995,0.0325995,0.0325995,0.0325995,0.0325995,0.0325995,0.0325995,-0.967401,0.744075,-0.0827682,1.22326,-0.0197787,-0.0234345,0.00924018,0.0303453,-0.0104397,0.00663477,-0.03357,-0.00372281,-0.0121376,0.0325995,-0.339685,-2.61342,0.0529834,0.250027,0.246453,0.187054,0.433389,2.38674,0.00207142,0.121435,-0.0411424,-0.111561,-0.348028,0.0896689,-0.331068,0.0303453,-0.0104397,0.00663477,-0.03357,-0.00372281,-0.0121376,0,0,0,0,0,0,0,0,0,-0.000712149,-0.00124288,-0.000167872,0.001244,-0.000280762,0.000593309,0.000146323,-3.80085e-05,0.000372462,0.000692894,-0.000410643,0.000691473
70,0.00051179,-0.00309426,-0.000493633,0.0251001,0.0370536,0.0370536,0.0370536,0.0370536,0.0370536,0.0370536,0.0370536,0.0370536,0.0370536,-0.787054,-0.516385,0.468838,1.05163,-0.00309426,-0.000493633,0.0251001,0.00420715,-0.0016447,0.00940303,-0.0133751,-0.0029599,0.0039451,0.0370536,0.000288025,-0.0207902,0.000297017,-0.000760806,-0.00160077,-0.00246274,0.0668797,0.0254852,-0.0119368,0.0010993,-0.000755562,0.006506,0.00015514,0.00700873,-0.0984858,0.00420715,-0.0016447,0.00940303,-0.0133751,-0.0029599,0.0039451,0,0,0,0,0,0,0,0,0,-0.000502445,3.38562e-05,-0.000390734,-0.000310665,-0.000303412,0.000377257,-0.000115179,-3.97751e-06,0.000345722,0.000380068,-3.31771e-05,6.61495e-05
71,0.00051179,0.00584972,0.00363806,-0.0228153,0.0307949,0.0307949,0.0307949,0.0307949,0.0307949,0.0307949,0.0307949,0.0307949,0.0307949,-0.969205,0.067701,0.125263,0.979609,0.00584972,0.00363806,-0.0228153,0.000253379,-0.00520868,0.00959499,-0.000691406,0.00881607,0.0316318,0.0307949,0.102631,0.468114,0.0229662,0.0636485,0.196372,0.0330503,-0.0810788,-0.670336,0.0881606,0.0112042,-0.00572213,0.0359515,-0.0784908,-0.0456843,0.0679426,0.000253379,-0.00520868,0.00959499,-0.000691406,0.00881607,0.0316318,0,0,0,0,0,0,0,0,0,-0.000524566,0.000310996,5.23011e-05,0.000202695,-0.000334347,0.000125274,0.000233922,6.2593e-06,0.000332348,0.000223758,2.46802e-05,-0.000273686
72,0.00051179,-0.0111924,-0.000866077,0.0047834,0.0145955,0.0145955,0.0145955,0.0145955,0.0145955,0.0145955,0.0145955,0.0145955,0.0145955,-0.985404,-0.0788927,-0.947567,1.36935,-0.0111924,-0.000866077,0.0047834,-0.00305942,0.000912262,0.00404712,-0.0149366,-0.0019398,0.00291827,0.0145955,0.00164331,0.00154574,-0.000815026,0.00638515,0.000141286,0.00102039,-0.000215575,0.00950534,-0.00215072,0.000440811,-1.45109e-05,0.000443081,-0.00595989,-0.0019298,-0.00501091,-0.00305942,0.000912262,0.00404712,-0.0149366,-0.0019398,0.00291827,0,0,0,0,0,0,0,0,0,-0.000293486,1.3129e-05,4.17562e-05,-0.000307798,-0.000298107,-4.07838e-05,-6.5227e-05,-6.82237e-06,0.00031025,0.000358473,-1.27207e-05,2.51519e-05
73,0.00051179,0.014561,-0.00244992,-0.0056899,0.0389048,0.0389048,0.0389048,0.0389048,0.0389048,0.0389048,0.0389048,0.0389048,0.0389048,-0.961095,-0.156975,-0.301784,1.01952,0.014561,-0.00244992,-0.0056899,-0.00826681,0.000524658,-0.00746033,0.00195594,-0.00770276,0.000298675,0.0389048,-0.0519115,0.186714,0.00971992,-0.0198499,-0.0691165,-0.0357697,-0.0541656,-0.132158,-0.0348306,0.0154444,0.00619413,-0.0619377,0.00685551,-0.00654607,0.121793,-0.00826681,0.000524658,-0.00746033,0.00195594,-0.00770276,0.000298675,0,0,0,0,0,0,0,0,0,-0.000520296,-0.000186314,8.70617e-05,-0.000435207,-0.000315035,1.5384e-05,-4.97958e-05,1.47789e-05,0.000326701,2.90611e-06,-2.98653e-05,8.33403e-05
74,0.00051179,0.00135485,0.0138716,-0.0168344,0.0167765,0.0167765,0.0167765,0.0167765,0.0167765,0.0167765,0.0167765,0.0167765,0.0167765,-0.766776,-0.0291869,0.509373,0.92101,0.00135485,0.0138716,-0.0168344,-0.000128608,-0.00163406,0.00643187,-0.00252979,0.000183175,-0.00632474,0.0167765,0.000108913,-0.0164912,0.000330038,-0.00294663,0.000669245,-0.000600874,0.0397945,0.0144671,-0.0149223,-0.00667878,-0.000328153,-0.000664598,-0.00424618,0.00234976,-0.0222955,-0.000128608,-0.00163406,0.00643187,-0.00252979,0.000183175,-0.00632474,0,0,0,0,0,0,0,0,0,-0.000609279,2.46478e-05,-2.27302e-05,-0.00022256,-0.000339473,9.68998e-06,-6.25142e-05,2.02898e-05,0.000337154,0.00028087,-2.17396e-05,4.87136e-06
75,0.00051179,-0.000225186,0.00376695,-0.00522257,0.0643261,0.0643261,0.0643261,0.0643261,0.0643261,0.0643261,0.0643261,0.0643261,0.0643261,-0.935674,-0.237648,-0.64232,1.15954,-0.000225186,0.00376695,-0.00522257,-0.0033788,0.00352283,0.000711476,-0.0080008,0.000375461,-0.000652014,0.0643261,-0.00183438,0.031774,-0.0028476,0.0147296,-0.00108537,-0.00359539,0.0212392,-0.0304634,0.00398953,0.000269278,-0.00379202,-0.00256432,-0.0187658,-0.00196058,-0.0134523,-0.0033788,0.00352283,0.000711476,-0.0080008,0.000375461,-0.000652014,0,0,0,0,0,0,0,0,0,-0.000402905,-1.24078e-05,0.000136756,-0.000320728,-0.000305945,-0.000130004,-6.39823e-06,-4.24287e-05,0.000330754,0.000291889,8.26311e-06,5.95154e-07
76,0.00051179,0.000144111,0.00319526,-0.00188145,0.0528399,0.0528399,0.0528399,0.0528399,0.0528399,0.0528399,0.0528399,0.0528399,0.0528399,-0.80284,-0.501508,0.620062,1.13161,0.000144111,0.00319526,-0.00188145,-0.0029727,0.000249427,0.00101001,-0.00812787,-0.00495417,0.00566237,0.0528399,0.000473097,-0.00874192,0.00034643,0.00126768,-0.000594272,-0.000141259,0.0126455,0.00919208,-0.00336586,-0.00476845,-0.00086593,0.00106071,0.000305519,0.00022665,-0.0118247,-0.0029727,0.000249427,0.00101001,-0.00812787,-0.00495417,0.00566237,0,0,0,0,0,0,0,0,0,-0.000550233,-3.14687e-06,-0.00031948,-0.000262862,-0.000313038,0.000325439,-4.81175e-05,-2.55747e-05,0.000347495,0.00027155,-3.26263e-05,3.87962e-05
77,0.00051179,0.0241601,-0.0257006,0.0137828,0.0142012,0.0142012,0.0142012,0.0142012,0.0142012,0.0142012,0.0142012,0.0142012,0.0142012,-0.985799,-0.343355,-0.237135,1.07048,0.0241601,-0.0257006,0.0137828,0.0110691,-0.0114359,0.0143707,-0.014176,-0.0232027,-0.0080656,0.0142012,-0.212715,-0.112528,0.0289076,0.203481,0.0176366,-0.0913672,-0.36298,0.0707318,-0.0569849,0.0453849,0.0120673,-0.0522925,-0.223166,-0.00172903,0.40149,0.0110691,-0.0114359,0.0143707,-0.014176,-0.0232027,-0.0080656,0,0,0,0,0,0,0,0,0,-0.0005657,-0.00068215,0.000200472,-0.000440464,-0.000307435,-2.57548e-05,-2.9726e-05,-3.10543e-05,0.000352785,-0.000329501,-8.02998e-05,0.000277105
78,0.00051179,0.00515832,-0.000273965,0.00487537,0.0577094,0.0577094,0.0577094,0.0577094,0.0577094,0.0577094,0.0577094,0.0577094,0.0577094,-0.942291,0.890943,0.792075,1.51956,0.00515832,-0.000273965,0.00487537,-0.000186666,-0.00123222,-0.000886079,0.0026265,-0.00411785,0.00740927,0.0577094,0.000761583,-0.00789896,0.000711031,-0.00410399,-0.00305133,0.000221875,0.00304747,0.00579197,-0.000683682,-7.80727e-05,-0.000925283,-0.00107024,0.00445603,-0.00178744,-0.0068526,-0.000186666,-0.00123222,-0.000886079,0.0026265,-0.00411785,0.00740927,0,0,0,0,0,0,0,0,0,-0.000503041,-6.51723e-06,0.000312703,-0.000486955,-0.00031575,-0.000317915,3.22277e-07,1.70545e-05,0.000261679,0.000480313,-6.74859e-05,1.87174e-05
79,0.00051179,-0.0035997,0.000270684,-0.00911072,0.0381924,0.0381924,0.0381924,0.0381924,0.0381924,0.0381924,0.0381924,0.0381924,0.0381924,-0.81915,-0.31752,-0.961808,1.30265,-0.0035997,0.000270684,-0.00911072,-0.00579853,-0.000319492,0.00164448,-0.00108935,-0.00121743,-0.00272338,0.0381924,0.00126256,-0.00407887,-0.000230484,0.0024386,0.000119919,0.000913113,-0.000512641,0.00755864,-0.00049329,0.00126404,2.47033e-05,-0.000661163,-0.00397332,-0.000832316,0.0102845,-0.00579853,-0.000319492,0.00164448,-0.00108935,-0.00121743,-0.00272338,0,0,0,0,0,0,0,0,0,-0.000313893,-1.15172e-05,0.000152051,-0.000347663,-0.000309253,-0.00015755,3.24947e-06,-2.76063e-05,0.000369802,0.000373239,1.5679e-05,-6.61583e-06
80,0.00051179,-0.00626767,-0.00505832,0.0242298,0.094333,0.094333,0.094333,0.094333,0.094333,0.094333,0.094333,0.094333,0.094333,-0.844333,-0.342087,-0.26664,0.94922,-0.00626767,-0.00505832,0.0242298,-0.0107548,0.0114656,-0.00733544,-0.00164247,0.0220141,-0.00311431,0.094333,-0.0743837,1.36397,0.00831241,-0.246399,-0.00205095,-0.0954596,0.714801,-1.35565,-0.0195807,-0.145169,0.0138316,-0.0296853,0.396626,-0.0897213,-0.709345,-0.0107548,0.0114656,-0.00733544,-0.00164247,0.0220141,-0.00311431,0,0,0,0,0,0,0,0,0,-0.00061693,-0.00019585,0.000410436,-0.00124122,-0.000322307,-0.000212656,0.000123727,0.000241149,0.000324555,0.000213269,0.000117308,-0.000234335
81,0.00051179,0.0248175,-0.0103136,-0.0296364,0.0203883,0.0203883,0.0203883,0.0203883,0.0203883,0.0203883,0.0203883,0.0203883,0.0203883,-0.770388,0.545924,-0.178019,0.960845,0.0248175,-0.0103136,-0.0296364,-0.0276276,-0.0253204,-0.145556,-0.101986,-0.0753918,-0.0834677,0.0203883,-0.251308,10.9523,-0.019994,0.529832,0.300247,-0.33319,8.05874,-11.2774,0.0146582,0.377675,-0.0280555,0.595348,-0.897194,-0.545944,-8.62445,-0.0276276,-0.0253204,-0.145556,-0.101986,-0.0753918,-0.0834677,0,0,0,0,0,0,0,0,0,-0.00102353,-0.000245824,-0.000693949,-0.00567354,-0.000263656,0.000240805,0.000712218,-0.000944047,0.00024087,0.000886081,-9.04267e-05,-0.0019982
82,0.00051179,-0.00615597,0.00320911,-0.0678275,0.0467316,0.0467316,0.0467316,0.0467316,0.0467316,0.0467316,0.0467316,0.0467316,0.0467316,-0.650773,-0.381405,0.0532684,0.756183,-0.00615597,0.00320911,-0.0678275,0.0391822,0.0357375,0.0139408,-0.00571513,-0.00654075,-0.0100079,0.0467316,1.95987,4.6195,-0.790665,-4.90104,0.141973,-0.128276,-2.69524,-4.75532,0.638563,-0.276826,-0.264337,0.363355,5.17466,0.2063,2.39971,0.0391822,0.0357375,0.0139408,-0.00571513,-0.00654075,-0.0100079,0,0,0,0,0,0,0,0,0,0.000422888,0.00673197,-0.00391867,0.0178499,-0.000754321,-0.0036306,-9.90594e-05,-0.00669386,-0.000742413,-0.0189933,0.00398508,-0.00228184
83,0.00051179,0.0032682,0.00173243,-0.00671305,0.0648767,0.0648767,0.0648767,0.0648767,0.0648767,0.0648767,0.0648767,0.0648767,0.0648767,-0.814877,0.559735,-0.869381,1.31649,0.0032682,0.00173243,-0.00671305,-0.00694631,0.000590932,0.000329129,0.000281014,0.00310547,-0.00139548,0.0648767,0.000600114,0.00271555,-0.000526927,0.00370203,6.1245e-06,0.000684652,-0.00333633,-0.00598987,-3.39616e-05,-0.000597669,-0.000221348,0.00031678,-0.00483679,0.000130631,0.0097326,-0.00694631,0.000590932,0.000329129,0.000281014,0.00310547,-0.00139548,0,0,0,0,0,0,0,0,0,-0.000391014,-2.32341e-05,-0.000239178,-0.000409593,-0.000291521,0.000239819,9.73217e-06,9.96021e-05,0.000343576,0.000419731,-7.07609e-05,2.17267e-06
84,0.00051179,0.0428621,0.0406902,0.00783736,0.00606129,0.00606129,0.00606129,0.00606129,0.00606129,0.00606129,0.00606129,0.00606129,0.00606129,-0.993939,0.73212,0.038711,1.23508,0.0428621,0.0406902,0.00783736,-0.0121254,0.0155425,-0.014799,0.0252032,0.0101001,0.0175506,0.00606129,0.18474,1.12832,-0.0305138,-0.152154,-0.100866,0.245987,1.0903,-1.07032,0.0309213,-0.118117,-0.047844,-0.132017,0.22958,-0.0273756,-0.966117,-0.0121254,0.0155425,-0.014799,0.0252032,0.0101001,0.0175506,0,0,0,0,0,0,0,0,0,-0.000535779,0.00061048,0.000228168,0.00139559,-0.000276381,-0.000377881,2.80293e-05,0.000112866,0.000377066,0.000916295,-0.000490306,-0.000301719
85,0.00051179,-0.0113767,-0.00947353,-0.00636351,0.0188927,0.0188927,0.0188927,0.0188927,0.0188927,0.0188927,0.0188927,0.0188927,0.0188927,-0.981107,0.755116,-0.167502,1.24933,-0.0113767,-0.00947353,-0.00636351,0.0376162,-0.010022,0.0327357,-0.0287198,-0.0424531,-0.0105404,0.0188927,-0.340547,-1.94128,0.0532177,0.148317,0.318141,0.0106614,-0.773982,1.63452,-0.0289616,0.181128,-0.0108909,0.0543122,-0.319971,0.0520597,0.726034,0.0376162,-0.010022,0.0327357,-0.0287198,-0.0424531,-0.0105404,0,0,0,0,0,0,0,0,0,-0.000754811,-0.00114647,-0.000542997,0.000275601,-0.000284785,0.000974954,7.97771e-05,-0.000103341,0.000305973,0.000158371,-0.000430098,0.000575781
86,0.00051179,0.00227084,-0.000599887,-0.0114008,0.0888745,0.0888745,0.0888745,0.0888745,0.0888745,0.0888745,0.0888745,0.0888745,0.0888745,-0.838874,-0.0967591,-0.510396,0.9867,0.00227084,-0.000599887,-0.0114008,-0.00159987,-0.00135139,-0.000610311,-0.00378883,-2.15019e-05,0.00148383,0.0888745,-7.71135e-05,0.0165874,-0.000804357,0.00452066,-0.000266588,-0.00292519,0.0590376,-0.0185917,0.0180151,0.00654003,-0.00539959,9.65142e-05,-0.0104608,-0.00429334,-0.0477333,-0.00159987,-0.00135139,-0.000610311,-0.00378883,-2.15019e-05,0.00148383,0,0,0,0,0,0,0,0,0,-0.000434391,-1.96231e-05,5.74759e-05,-0.000348329,-0.000318075,-7.90334e-05,5.9893e-05,-4.45792e-05,0.000356451,0.000312974,-9.63178e-06,-2.52857e-05
87,0.00051179,-0.0204408,0.0279686,-0.00424273,0.0838622,0.0838622,0.0838622,0.0838622,0.0838622,0.0838622,0.0838622,0.0838622,0.0838622,-0.833862,-0.368549,-0.214347,0.936536,-0.0204408,0.0279686,-0.00424273,-0.0117655,0.0165294,-0.00305499,0.000101615,0.0159359,-0.00163008,0.0838622,-0.206348,2.07101,0.0309836,-0.4743,0.0179541,-0.194999,0.00797992,-2.06853,-0.061569,-0.20368,0.0403536,-0.0237657,0.650011,-0.139748,0.0200285,-0.0117655,0.0165294,-0.00305499,0.000101615,0.0159359,-0.00163008,0,0,0,0,0,0,0,0,0,-0.000715941,-0.000604844,0.000637626,-0.00191256,-0.000312502,-0.000162495,0.000178384,0.000380145,0.000308901,-6.79718e-05,0.00018275,-0.000221167
88,0.00051179,-0.00801206,0.00297222,-0.00263734,0.0550201,0.0550201,0.0550201,0.0550201,0.0550201,0.0550201,0.0550201,0.0550201,0.0550201,-0.94498,-0.492709,0.42816,1.14851,-0.00801206,0.00297222,-0.00263734,0.00162067,0.000689294,0.00036307,0.00430962,0.00139862,-0.00752595,0.0550201,0.0238763,-0.232062,-0.000375561,-0.00535617,-0.0225227,-0.0264943,0.11065,0.262597,0.0068839,0.0704178,0.0073677,0.0372147,-0.0680338,0.0227661,-0.145228,0.00162067,0.000689294,0.00036307,0.00430962,0.00139862,-0.00752595,0,0,0,0,0,0,0,0,0,-0.000501253,6.75649e-05,-0.000368027,-0.000263264,-0.0003685,0.000371165,-3.95242e-06,8.88806e-05,0.00031022,1.95257e-06,-1.21743e-06,1.62809e-05
89,0.00051179,3.93018e-06,-0.00385325,0.000417989,0.0209956,0.0209956,0.0209956,0.0209956,0.0209956,0.0209956,0.0209956,0.0209956,0.0209956,-0.979004,-0.678951,0.719993,1.39205,3.93018e-06,-0.00385325,0.000417989,0.00191015,0.000198618,-0.00173306,0.0098228,0.0134337,-7.57619e-05,0.0209956,0.00206085,-0.0228069,0.00103963,-0.00435197,-0.00049703,-0.00281802,0.0353232,0.0233,0.00257061,0.00591618,-0.00141583,0.00209072,0.00228905,0.00220971,-0.0378319,0.00191015,0.000198618,-0.00173306,0.0098228,0.0134337,-7.57619e-05,0,0,0,0,0,0,0,0,0,-0.000518866,-1.4893e-06,-0.000359908,-0.00033511,-0.000373626,0.00037229,4.06228e-05,5.19552e-05,0.000297062,0.000289599,6.82239e-05,-1.06745e-05
90,0.00051179,0.00647883,0.000753841,-0.00656997,0.0258136,0.0258136,0.0258136,0.0258136,0.0258136,0.0258136,0.0258136,0.0258136,0.0258136,-0.775814,-0.651056,-0.841833,1.31698,0.00647883,0.000753841,-0.00656997,-0.00697388,0.00371102,-0.00256442,-0.00184166,-0.00653659,-0.00100903,0.0258136,0.000524178,-0.00141823,-0.000478201,0.0047937,5.79219e-05,0.000368174,-0.000116059,-0.00511853,0.000792844,0.000577063,-0.00039851,-0.000322258,-0.0061246,0.000982769,0.00700829,-0.00697388,0.00371102,-0.00256442,-0.00184166,-0.00653659,-0.00100903,0,0,0,0,0,0,0,0,0,-0.000434853,-2.35661e-05,0.000291583,-0.000423105,-0.000329847,-0.000259254,3.43835e-06,-0.000128452,0.000373513,0.000401142,5.91012e-05,8.55114e-06
91,0.00051179,-0.0221856,0.00548202,-0.00462484,0.120936,0.120936,0.120936,0.120936,0.120936,0.120936,0.120936,0.120936,0.120936,-0.879064,0.013764,-0.380979,0.958169,-0.0221856,0.00548202,-0.00462484,-0.00300492,-0.000636675,-0.000802778,-0.00642945,-0.00306789,4.50667e-05,0.120936,-0.00909756,0.131145,0.000391312,-0.0231882,-0.00105108,-0.0164125,0.123923,-0.107909,-0.00020908,0.0149087,-0.00612051,-0.00898412,0.0027975,-0.0176515,-0.110314,-0.00300492,-0.000636675,-0.000802778,-0.00642945,-0.00306789,4.50667e-05,0,0,0,0,0,0,0,0,0,-0.00048314,-1.8573e-05,-1.8993e-05,-0.000453006,-0.000319028,1.65393e-05,8.74675e-06,-6.17673e-05,0.000337802,0.000280853,-3.01167e-05,-4.60929e-05
92,0.00051179,-0.00514821,-0.000293385,-0.00892051,0.12185,0.12185,0.12185,0.12185,0.12185,0.12185,0.12185,0.12185,0.12185,-0.87185,0.0118996,-0.568822,1.04107,-0.00514821,-0.000293385,-0.00892051,-0.00317898,0.000117707,0.000755295,-0.00252014,-0.00147701,-0.000991074,0.12185,-0.00011842,0.0245074,-0.00180005,0.0119768,-0.000148752,-0.00361639,0.0398314,-0.0192104,0.011224,0.00453269,-0.00462909,0.00172615,-0.0162161,-0.00259665,-0.032637,-0.00317898,0.000117707,0.000755295,-0.00252014,-0.00147701,-0.000991074,0,0,0,0,0,0,0,0,0,-0.000411503,-1.85855e-05,-7.37368e-06,-0.00032172,-0.000308538,-9.44978e-06,4.14208e-05,-3.86146e-05,0.000346154,0.000293109,-2.24464e-05,-2.00372e-05
93,0.00051179,0.000481009,0.0118196,-0.00982002,0.0328734,0.0328734,0.0328734,0.0328734,0.0328734,0.0328734,0.0328734,0.0328734,0.0328734,-0.967127,-0.309688,-0.569688,1.16438,0.000481009,0.0118196,-0.00982002,-0.00608176,0.00318711,-0.000257276,-0.0110296,0.00152212,0.00215981,0.0328734,-0.00479446,0.0598129,-0.00248789,-0.00439811,0.000747033,-0.00786181,0.0403699,-0.0610409,0.000972761,-0.00474201,-0.0051267,-0.00147624,-0.00267947,-0.00385802,-0.0290737,-0.00608176,0.00318711,-0.000257276,-0.0110296,0.00152212,0.00215981,0,0,0,0,0,0,0,0,0,-0.000437073,-2.82681e-05,0.000183385,-0.000318417,-0.000303352,-0.000176393,-2.41711e-05,-4.68728e-05,0.000322014,0.000237226,1.08271e-05,1.76219e-05
94,0.00051179,0.00231096,0.00603669,-0.00143073,0.0262222,0.0262222,0.0262222,0.0262222,0.0262222,0.0262222,0.0262222,0.0262222,0.0262222,-0.776222,0.406583,0.683292,1.11118,0.00231096,0.00603669,-0.00143073,0.00276875,0.00390278,0.000720166,-0.00962124,0.00664053,0.00808344,0.0262222,-4.36753e-05,-0.00319228,0.000378557,-0.00715199,1.453e-05,0.000458516,0.00642885,0.000866782,-0.00322198,0.0011324,-0.00120242,0.000236081,-1.71023e-05,4.19691e-05,-0.00523421,0.00276875,0.00390278,0.000720166,-0.00962124,0.00664053,0.00808344,0,0,0,0,0,0,0,0,0,-0.00060159,1.59247e-05,0.000221344,-0.000255897,-0.000360334,-0.000178531,-6.19168e-05,5.43029e-05,0.000336446,0.000267684,7.82178e-08,4.29264e-05
95,0.00051179,0.00209379,-0.00321865,0.00435367,0.0604449,0.0604449,0.0604449,0.0604449,0.0604449,0.0604449,0.0604449,0.0604449,0.0604449,-0.810445,-0.490153,0.918822,1.31958,0.00209379,-0.00321865,0.00435367,0.000760467,0.000602817,-0.000315536,-0.00194044,-0.00339365,0.00565511,0.0604449,0.000998154,-0.00243872,-0.000252984,-0.00123606,5.12393e-06,0.000522368,5.75689e-05,0.000339813,-0.00114067,0.000103773,-0.000391948,0.000683183,0.00435093,-0.000936046,-0.00509442,0.000760467,0.000602817,-0.000315536,-0.00194044,-0.00339365,0.00565511,0,0,0,0,0,0,0,0,0,-0.000638582,4.87397e-06,-0.000223381,-0.000314966,-0.000322307,0.000226879,-1.93247e-05,-1.35395e-05,0.000352561,0.000317034,-2.43165e-05,1.96762e-05
96,0.00051179,0.00260735,-0.0195745,-0.0168697,0.0963787,0.0963787,0.0963787,0.0963787,0.0963787,0.0963787,0.0963787,0.0963787,0.0963787,-0.846379,0.380231,-0.111141,0.934497,0.00260735,-0.0195745,-0.0168697,-0.00968051,0.0162187,0.00364852,0.0116596,-0.00350911,-0.0100947,0.0963787,-0.695159,-5.47099,-0.179015,-1.34482,0.139103,-0.051656,-1.83373,5.32928,-0.144478,-0.107262,-0.0140302,-0.0318876,1.47166,0.102661,1.88249,-0.00968051,0.0162187,0.00364852,0.0116596,-0.00350911,-0.0100947,0,0,0,0,0,0,0,0,0,-0.000852503,-0.00266448,-0.000983174,0.000365638,-0.000372285,-0.000644785,0.000195628,-8.84488e-05,0.000347048,-0.000845713,-8.69442e-05,0.00132255
97,0.00051179,0.017912,0.00408218,-0.00847603,0.0829733,0.0829733,0.0829733,0.0829733,0.0829733,0.0829733,0.0829733,0.0829733,0.0829733,-0.917027,-0.0557133,0.34983,0.983068,0.017912,0.00408218,-0.00847603,0.00365611,-0.0031452,0.000491655,-0.00579245,0.0047725,0.00529568,0.0829733,0.0153141,-0.169059,0.00236899,-0.0318009,0.0202989,-0.0208867,0.0514257,0.130848,0.0486276,0.0160377,0.000416978,-0.0528427,0.011681,0.0167135,0.00989312,0.00365611,-0.0031452,0.000491655,-0.00579245,0.0047725,0.00529568,0,0,0,0,0,0,0,0,0,-0.000562683,-1.85823e-06,-3.43414e-05,-0.000357653,-0.000352019,2.65794e-05,0.000117467,8.27358e-05,0.000303604,0.000153702,-3.08411e-05,1.33369e-05
98,0.00051179,0.00424269,0.0158784,0.00298176,0.013738,0.013738,0.013738,0.013738,0.013738,0.013738,0.013738,0.013738,0.013738,-0.763738,0.637369,-0.675827,1.20261,0.00424269,0.0158784,0.00298176,-0.012289,-0.00281138,0.00264071,0.00663157,0.0141098,0.0020802,0.013738,0.000818327,-0.00550715,-0.000256471,0.0160209,0.00067722,0.000200391,0.0185065,0.000587233,0.00672142,-0.0176449,-0.00208297,0.00250552,-0.0142543,-0.000240695,-0.0239938,-0.012289,-0.00281138,0.00264071,0.00663157,0.0141098,0.0020802,0,0,0,0,0,0,0,0,0,-0.000498429,-6.16477e-05,-0.000346066,-0.000443781,-0.000250811,0.000315387,6.24705e-05,0.000165523,0.000360675,0.000472192,-4.5255e-05,4.90309e-06
99,0.00051179,0.00229377,-0.00683807,0.00699208,0.0362235,0.0362235,0.0362235,0.0362235,0.0362235,0.0362235,0.0362235,0.0362235,0.0362235,-0.963776,0.606766,-0.870243,1.4333,0.00229377,-0.00683807,0.00699208,0.000661909,-0.00142387,0.00256259,-0.00647131,-0.00658188,0.00326214,0.0362235,0.000344291,-0.00284741,-0.00112709,0.00544777,0.000401469,0.00141658,-0.00900883,0.000152166,-0.00135654,0.00144439,0.000205009,0.000364933,-5.40864e-05,-0.00181524,0.00165182,0.000661909,-0.00142387,0.00256259,-0.00647131,-0.00658188,0.00326214,0,0,0,0,0,0,0,0,0,-0.000401311,1.12326e-05,-0.000252866,-0.000414803,-0.000326866,0.000227356,-3.29376e-05,7.26314e-05,0.000273876,0.000454594,-0.0001364,1.34361e-05
100,0.00051179,0.0226345,-0.0360482,-0.0479574,0.0456184,0.0456184,0.0456184,0.0456184,0.0456184,0.0456184,0.0456184,0.0456184,0.0456184,-0.795618,0.755377,-0.131876,1.10499,0.0226345,-0.0360482,-0.0479574,0.0380277,-0.0313518,0.0227812,-0.0441135,-0.0270571,-0.00147742,0.0456184,-1.28323,-6.48254,0.163024,1.21289,1.14423,-0.447738,-8.52135,5.31568,-0.0957889,0.670218,0.063929,0.673368,-1.84706,-0.105606,7.89594,0.0380277,-0.0313518,0.0227812,-0.0441135,-0.0270571,-0.00147742,0,0,0,0,0,0,0,0,0,-0.00126257,-0.00450426,0.000224447,-0.00302679,-0.000108624,0.00109227,0.00102225,-0.00034228,0.000273064,-0.00122277,0.000710998,0.00118634
101,0.00051179,-0.00124944,-0.00086378,0.00180595,0.0424184,0.0424184,0.0424184,0.0424184,0.0424184,0.0424184,0.0424184,0.0424184,0.0424184,-0.792418,0.419026,0.613897,1.08645,-0.00124944,-0.00086378,0.00180595,-0.00148489,0.000864375,0.00190334,-0.0095367,0.00584373,0.006737,0.0424184,0.000179902,-0.00741553,0.000369854,0.00282922,-0.000114411,5.01424e-05,0.0126034,0.00877939,-0.00564157,0.003979,-0.00105532,0.000348561,-0.00594444,0.00065548,-0.0147579,-0.00148489,0.000864375,0.00190334,-0.0095367,0.00584373,0.006737,0,0,0,0,0,0,0,0,0,-0.000580914,3.96441e-06,0.000246246,-0.000262137,-0.000361497,-0.000233904,-6.5402e-05,5.02536e-05,0.000328958,0.000281672,-2.36944e-06,4.74518e-05
102,0.00051179,0.000495197,-0.000250408,-0.00145373,0.0956814,0.0956814,0.0956814,0.0956814,0.0956814,0.0956814,0.0956814,0.0956814,0.0956814,-0.904319,-0.249379,-0.846315,1.26342,0.000495197,-0.000250408,-0.00145373,-0.00593746,0.00226998,0.00243451,-0.00536257,-0.00188594,-0.00183599,0.0956814,-0.000191018,0.00958555,-0.00106388,0.00603017,-0.000255456,0.000822328,-0.00191483,-0.00982529,-0.00131862,0.00109792,-0.00038802,-0.000830038,-0.00687768,-0.00104324,0.0041986,-0.00593746,0.00226998,0.00243451,-0.00536257,-0.00188594,-0.00183599,0,0,0,0,0,0,0,0,0,-0.000340067,-1.25398e-05,0.000137486,-0.000308238,-0.000301206,-0.000125425,-1.53034e-05,-3.66026e-05,0.000339828,0.000340806,1.3863e-05,3.70641e-06
103,0.00051179,0.00407609,-0.00325897,0.00376613,0.0313673,0.0313673,0.0313673,0.0313673,0.0313673,0.0313673,0.0313673,0.0313673,0.0313673,-0.838601,-0.499046,0.968633,1.37497,0.00407609,-0.00325897,0.00376613,-0.00232592,0.00105901,-0.00138902,0.000977033,-0.0028528,0.00605997,0.0313673,0.00100382,-0.00177798,-0.000375979,-0.000935788,3.32015e-05,0.000479814,-6.37349e-05,-0.00233131,-0.00119271,0.000296133,-0.000186688,0.000738793,0.00389862,-0.00124214,-0.00444119,-0.00232592,0.00105901,-0.00138902,0.000977033,-0.0028528,0.00605997,0,0,0,0,0,0,0,0,0,-0.00065244,-1.03952e-05,-0.000207497,-0.000322953,-0.000329012,0.000214328,-4.86303e-06,-1.47179e-05,0.000344798,0.000313861,-1.5677e-05,2.03045e-05
104,0.00051179,-0.0237156,0.0239844,0.0742176,0.009018,0.009018,0.009018,0.009018,0.009018,0.009018,0.009018,0.009018,0.009018,-0.759018,-0.0838668,-0.279563,0.813202,-0.0237156,0.0239844,0.0742176,-0.0235741,-0.00629001,0.00720972,0.00467091,0.0137077,0.0292863,0.009018,-0.000152335,-0.0106283,0.000250764,0.00674056,0.00718673,0.000348892,0.12248,0.0271571,0.0060374,-0.0292014,-0.0101777,-0.0073532,-0.00152357,-0.0205539,-0.189344,-0.0235741,-0.00629001,0.00720972,0.00467091,0.0137077,0.0292863,0,0,0,0,0,0,0,0,0,-0.00054013,-0.000113687,8.60622e-05,-0.000647539,-0.000327135,-0.000146455,5.84866e-05,3.05045e-05,0.000386976,0.000723125,4.79581e-06,4.86073e-05
105,0.00051179,-0.0186528,-0.0031873,-0.0242041,0.121408,0.121408,0.121408,0.121408,0.121408,0.121408,0.121408,0.121408,0.121408,-0.878592,0.46167,-0.252148,1.02403,-0.0186528,-0.0031873,-0.0242041,-0.00242276,-0.00920141,0.010781,-0.00656205,-0.00867914,-0.0034144,0.121408,-0.200423,1.33679,-0.0212535,0.179792,0.0925653,-0.171221,-0.229757,-1.4107,-0.0104964,0.114645,-0.0279006,0.101156,-0.29125,-0.0925116,0.152805,-0.00242276,-0.00920141,0.010781,-0.00656205,-0.00867914,-0.0034144,0,0,0,0,0,0,0,0,0,-0.000682399,-0.000649808,-0.00047595,-0.00141692,-0.000297898,0.000171401,0.000279127,-0.00024139,0.000281684,-0.000187473,-0.000124407,-0.000115211
106,0.00051179,-0.00231059,-9.25204e-05,-0.00703653,0.00471617,0.00471617,0.00471617,0.00471617,0.00471617,0.00471617,0.00471617,0.00471617,0.00471617,-0.995284,0.0540099,0.9038,1.3455,-0.00231059,-9.25204e-05,-0.00703653,0.000855011,-0.000250714,0.000900658,0.0119471,-0.00161301,0.00351946,0.00471617,0.00162198,-0.00900756,0.000376381,-0.00558751,0.000336712,-0.000820883,0.0243533,0.0109814,0.0029605,-0.000759458,-0.000270314,-0.000643704,0.00643949,-0.00120648,-0.016673,0.000855011,-0.000250714,0.000900658,0.0119471,-0.00161301,0.00351946,0,0,0,0,0,0,0,0,0,-0.000694327,-1.0343e-05,5.21138e-06,-0.000256388,-0.000333035,-3.95471e-06,5.181e-05,1.14558e-05,0.000291511,0.000257185,-3.0289e-05,-1.11631e-05
107,0.00051179,0.00443858,-0.00149114,-0.00344529,0.0338908,0.0338908,0.0338908,0.0338908,0.0338908,0.0338908,0.0338908,0.0338908,0.0338908,-0.783891,0.191501,0.607574,1.0101,0.00443858,-0.00149114,-0.00344529,0.000827088,-3.43388e-05,0.00392848,-0.00455412,0.00302819,0.00392927,0.0338908,0.000223532,-0.00984103,0.000487693,0.00308983,-0.00050035,8.80994e-05,0.0129088,0.0059028,-0.00737442,0.00234377,-0.000927243,-0.000766122,-0.00394246,0.00116146,-0.00869738,0.000827088,-3.43388e-05,0.00392848,-0.00455412,0.00302819,0.00392927,0,0,0,0,0,0,0,0,0,-0.000619628,1.19306e-05,0.00011376,-0.000222126,-0.000350172,-0.000109226,-5.29652e-05,2.30079e-05,0.000331633,0.000262292,-1.99848e-06,3.21312e-05
108,0.00051179,0.0384263,-0.0183233,0.00352085,0.111309,0.111309,0.111309,0.111309,0.111309,0.111309,0.111309,0.111309,0.111309,-0.861309,0.139781,-0.161809,0.887454,0.0384263,-0.0183233,0.00352085,-0.0129196,0.000566961,-0.000619131,-0.00419667,0.000418857,2.02209e-05,0.111309,-0.181243,-0.553517,-0.0700137,-0.145761,-0.415722,-0.0588002,-0.867477,0.930812,-0.0852937,-0.0567209,-0.0289446,-0.126024,0.220805,0.0180307,0.98998,-0.0129196,0.000566961,-0.000619131,-0.00419667,0.000418857,2.02209e-05,0,0,0,0,0,0,0,0,0,-0.000631638,-0.000664349,-0.000417122,-0.000474487,-0.00035497,-0.000277346,-0.000140988,-0.000180721,0.000342824,-0.000119706,-0.000104537,0.000396718
109,0.00051179,0.00164868,-4.04078e-05,0.00116711,0.0534699,0.0534699,0.0534699,0.0534699,0.0534699,0.0534699,0.0534699,0.0534699,0.0534699,-0.915864,0.692075,0.94653,1.48785,0.00164868,-4.04078e-05,0.00116711,-0.00150483,-0.00211998,-0.000740267,0.00523914,-0.00254046,0.00574744,0.0534699,0.00121708,-0.00104071,-0.000190757,-0.00271069,-0.000205531,0.000471137,-0.000471417,-0.000402444,-0.000319542,-0.000288145,-0.000193133,-0.000115484,0.00303925,-0.00158878,-0.000580211,-0.00150483,-0.00211998,-0.000740267,0.00523914,-0.00254046,0.00574744,0,0,0,0,0,0,0,0,0,-0.000621989,-1.15816e-05,0.000214024,-0.000383458,-0.000321621,-0.000237131,1.44551e-05,3.03385e-05,0.000288703,0.000380767,-5.76745e-05,1.06504e-05
110,0.00051179,-0.00569966,0.000982135,0.00801226,0.0487693,0.0487693,0.0487693,0.0487693,0.0487693,0.0487693,0.0487693,0.0487693,0.0487693,-0.951231,0.387418,0.761029,1.27832,-0.00569966,0.000982135,0.00801226,-0.00128782,-0.0010343,-0.00165252,0.00948016,-0.00259569,0.00260469,0.0487693,0.00038977,-0.0116445,0.000911124,-0.00333669,0.00113458,-0.00105204,0.0258823,0.0162096,-1.49477e-05,-0.00156149,-0.00122987,-0.000333543,0.00391605,0.000938632,-0.033561,-0.00128782,-0.0010343,-0.00165252,0.00948016,-0.00259569,0.00260469,0,0,0,0,0,0,0,0,0,-0.000625819,-1.84639e-05,0.000186904,-0.000276844,-0.00032323,-0.000188136,3.33524e-05,5.27111e-06,0.000291489,0.000249799,-4.35268e-05,3.74297e-06
111,0.00051179,-0.000342351,0.00332038,0.00414867,0.0996909,0.0996909,0.0996909,0.0996909,0.0996909,0.0996909,0.0996909,0.0996909,0.0996909,-0.849691,0.789796,-0.570817,1.2929,-0.000342351,0.00332038,0.00414867,-0.00263233,-0.00401557,0.00115829,0.00121746,0.00747074,-0.000865288,0.0996909,0.000881866,0.0151065,-0.00118231,0.00675797,0.000531294,-0.00107327,0.0219552,-0.0152955,0.00498573,-0.0278758,0.000460389,0.00342558,0.0177975,-1.24574e-05,-0.0295295,-0.00263233,-0.00401557,0.00115829,0.00121746,0.00747074,-0.000865288,0,0,0,0,0,0,0,0,0,-0.000610068,-1.28773e-05,-0.00047375,-0.000558164,-0.000259811,0.000421771,2.6891e-05,0.000186749,0.000307672,0.000559014,-0.000107438,-8.51371e-06
112,0.00051179,-0.00354967,-0.000288323,-0.00919461,0.0122025,0.0122025,0.0122025,0.0122025,0.0122025,0.0122025,0.0122025,0.0122025,0.0122025,-0.819015,0.728375,-0.987798,1.47549,-0.00354967,-0.000288323,-0.00919461,0.000427801,0.000922564,-0.00293666,-0.00131834,0.00102951,0.00306923,0.0122025,0.00132789,-0.00872205,-0.000172816,0.00336872,-0.000468708,0.000297427,-0.00233544,0.0127404,-0.000132905,0.00161544,0.000342413,-8.44154e-05,-0.00469583,-0.00103157,0.0116145,0.000427801,0.000922564,-0.00293666,-0.00131834,0.00102951,0.00306923,0,0,0,0,0,0,0,0,0,-0.000377715,6.07601e-06,-0.000236513,-0.000516954,-0.000305826,0.00024401,-9.95865e-06,0.000114859,0.000326626,0.000490562,-0.000101139,7.48587e-06
113,0.00051179,0.103642,-0.0554823,-0.0550604,0.00175491,0.00175491,0.00175491,0.00175491,0.00175491,0.00175491,0.00175491,0.00175491,0.00175491,-0.751755,0.747471,-0.137707,1.06902,0.103642,-0.0554823,-0.0550604,-0.205449,-0.0395395,-0.285968,-0.154081,-0.0718567,-0.049073,0.00175491,-1.05115,14.5301,0.160262,-1.31779,1.03278,-0.789587,-2.14353,-15.6665,-0.096211,0.736098,0.154162,1.03912,0.637171,-0.756743,1.15947,-0.205449,-0.0395395,-0.285968,-0.154081,-0.0718567,-0.049073,0,0,0,0,0,0,0,0,0,-0.00142123,-0.00361451,0.000255252,-0.00890647,-7.07451e-05,0.000951972,0.00141705,-0.000119417,0.000204079,-0.00184908,0.000942474,-0.00136057
114,0.00051179,-0.00196686,-0.00122451,0.00258693,0.0529349,0.0529349,0.0529349,0.0529349,0.0529349,0.0529349,0.0529349,0.0529349,0.0529349,-0.947065,-0.76286,0.837945,1.47683,-0.00196686,-0.00122451,0.00258693,-0.00430363,-0.000135809,-0.00284704,0.00405712,0.00808281,0.005381,0.0529349,0.00119157,-0.00829972,0.000290103,-0.00253229,0.00197289,0.000213228,0.00484422,0.00829369,1.36327e-05,-0.00121801,-0.000584519,-0.001175,0.00497481,-0.00181603,-0.00625615,-0.00430363,-0.000135809,-0.00284704,0.00405712,0.00808281,0.005381,0,0,0,0,0,0,0,0,0,-0.000533305,-2.07799e-05,-0.000327136,-0.000393471,-0.000359977,0.000328679,1.51341e-05,2.39492e-05,0.000302821,0.000367133,5.10337e-05,1.26052e-05
115,0.00051179,0.0016514,0.000714198,0.00154264,0.0829283,0.0829283,0.0829283,0.0829283,0.0829283,0.0829283,0.0829283,0.0829283,0.0829283,-0.909715,0.775677,0.917072,1.50674,0.0016514,0.000714198,0.00154264,-0.00135857,-0.00235146,-0.000533678,0.00389384,-0.00292085,0.00569668,0.0829283,0.00115712,-0.0020048,-4.54411e-05,-0.00310424,-0.000322607,0.000464488,-0.000945783,0.000676004,-0.000316041,-0.00048244,-0.000301723,-0.000226705,0.00287249,-0.00155331,-0.000370153,-0.00135857,-0.00235146,-0.000533678,0.00389384,-0.00292085,0.00569668,0,0,0,0,0,0,0,0,0,-0.000591584,-9.68386e-06,0.000234257,-0.000418972,-0.000323052,-0.000258226,9.21239e-06,3.02342e-05,0.000285782,0.00041828,-6.24599e-05,1.20403e-05
116,0.00051179,-0.000709052,-0.00228639,-0.000269392,0.0545919,0.0545919,0.0545919,0.0545919,0.0545919,0.0545919,0.0545919,0.0545919,0.0545919,-0.945408,-0.0403919,0.926665,1.32444,-0.000709052,-0.00228639,-0.000269392,-0.00655204,-0.000850869,-0.00122296,0.00622017,-0.0010841,0.00181453,0.0545919,0.00142647,-0.00309571,-1.8023e-05,-0.0029623,0.000316657,-9.26107e-06,0.00746469,0.00348811,0.000859765,0.000349403,-4.23146e-05,-0.000371473,0.00489929,-0.00117146,-0.00682382,-0.00655204,-0.000850869,-0.00122296,0.00622017,-0.0010841,0.00181453,0,0,0,0,0,0,0,0,0,-0.000699744,-2.86249e-05,-3.85991e-05,-0.000254796,-0.000336016,2.99101e-05,3.24027e-05,1.73546e-05,0.000306547,0.000242473,-2.86187e-05,2.18306e-07
117,0.00051179,0.0265722,-7.88644e-05,-0.0357025,0.0154686,0.0154686,0.0154686,0.0154686,0.0154686,0.0154686,0.0154686,0.0154686,0.0154686,-0.984531,0.647979,0.300443,1.21632,0.0265722,-7.88644e-05,-0.0357025,0.0120314,-0.0121531,0.00961759,0.0140174,-0.0182625,-0.0163473,0.0154686,0.140476,-0.363003,-0.0123911,0.0954883,-0.149648,-0.0690637,-0.158097,0.486078,0.0220178,-0.133711,-0.00814959,0.1133,0.0383017,0.0154448,0.0804996,0.0120314,-0.0121531,0.00961759,0.0140174,-0.0182625,-0.0163473,0,0,0,0,0,0,0,0,0,-0.000401579,0.00054603,0.000500153,-0.000209266,-0.00028863,-0.000745595,-3.63321e-05,-0.000123108,0.00028459,-0.000385195,-0.000141012,-0.00022102
118,0.00051179,-0.00707674,0.0151587,-0.0176251,0.00299233,0.00299233,0.00299233,0.00299233,0.00299233,0.00299233,0.00299233,0.00299233,0.00299233,-0.752992,-0.000771316,0.447203,0.875779,-0.00707674,0.0151587,-0.0176251,-0.0093912,0.00280814,-0.00159561,-0.00303763,-0.0015219,-0.0082901,0.00299233,-0.00015001,-0.00788311,0.000110395,-0.00113755,0.000452277,-0.000743154,0.0711119,0.0145076,-0.0145865,-0.0119754,0.000463058,-0.0022533,-0.00204578,0.00513308,-0.0512335,-0.0093912,0.00280814,-0.00159561,-0.00303763,-0.0015219,-0.0082901,0,0,0,0,0,0,0,0,0,-0.000594817,-1.27187e-05,2.31049e-06,-0.000249347,-0.000341797,2.68749e-05,-5.31334e-05,7.44376e-06,0.000339642,0.000225959,-1.80322e-05,1.92023e-05
119,0.00051179,-0.000814766,-0.00111477,0.00281129,0.0078173,0.0078173,0.0078173,0.0078173,0.0078173,0.0078173,0.0078173,0.0078173,0.0078173,-0.992183,-0.374525,0.81609,1.33817,-0.000814766,-0.00111477,0.00281129,0.00474121,-0.00185499,-0.000629794,0.0161222,0.00313854,0.00420215,0.0078173,0.00159015,-0.0182012,0.000838049,-0.00549398,-0.000877742,-0.00166085,0.0353215,0.0198937,0.0016347,0.00296234,-0.000551955,0.000281352,0.00364641,0.000617716,-0.0384141,0.00474121,-0.00185499,-0.000629794,0.0161222,0.00313854,0.00420215,0,0,0,0,0,0,0,0,0,-0.000632025,-1.69873e-06,-0.000199128,-0.000253492,-0.000358129,0.000188959,5.54289e-05,2.36795e-05,0.000301711,0.000230585,2.18632e-06,-9.25617e-06
120,0.00051179,-0.00336939,-0.00189513,-0.00313975,0.0598808,0.0598808,0.0598808,0.0598808,0.0598808,0.0598808,0.0598808,0.0598808,0.0598808,-0.899244,0.259086,-0.940119,1.3265,-0.00336939,-0.00189513,-0.00313975,-0.00577177,-0.000633014,0.00190631,-0.00677292,-0.00203254,-0.00092411,0.0598808,0.00140984,-0.00454963,-0.000504456,0.00238882,-6.45982e-05,0.00105456,-0.00170508,0.00798362,-0.00108974,0.000790779,5.73406e-05,0.000126239,-0.00128447,-0.00131166,0.00471859,-0.00577177,-0.000633014,0.00190631,-0.00677292,-0.00203254,-0.00092411,0,0,0,0,0,0,0,0,0,-0.000310548,-5.12461e-06,-0.000115348,-0.000334551,-0.000309283,0.000103973,-2.26283e-05,3.81166e-05,0.000329234,0.00036416,-5.78686e-05,5.50619e-06
121,0.00051179,0.0017344,0.00714936,-0.00390269,0.107922,0.107922,0.107922,0.107922,0.107922,0.107922,0.107922,0.107922,0.107922,-0.892078,0.00642106,0.535514,1.04049,0.0017344,0.00714936,-0.00390269,-0.00298935,0.00241763,0.000699591,0.00452086,-0.00220713,0.00348288,0.107922,0.00356884,-0.043374,-0.000856571,0.0148858,6.68346e-05,-0.00440535,0.046094,0.0415728,0.00558959,-0.0035952,0.000990178,-0.0035622,-0.0184399,0.00692428,-0.0386291,-0.00298935,0.00241763,0.000699591,0.00452086,-0.00220713,0.00348288,0,0,0,0,0,0,0,0,0,-0.000615217,-2.14453e-05,6.71146e-06,-0.000215701,-0.000340188,8.89911e-06,2.62094e-05,2.09785e-05,0.000310369,0.000178643,-3.3148e-05,2.7693e-05
122,0.00051179,-0.0250434,-0.0150802,-0.0462811,0.0869432,0.0869432,0.0869432,0.0869432,0.0869432,0.0869432,0.0869432,0.0869432,0.0869432,-0.913057,-0.55141,-0.164471,1.07925,-0.0250434,-0.0150802,-0.0462811,0.00251113,-0.00630173,0.0165152,0.00084053,-0.00739319,0.00507379,0.0869432,-0.557503,-2.40487,0.0248435,0.357876,0.55579,-0.15138,-1.67443,1.87412,-0.0812923,-0.145908,0.0122724,0.074499,-0.196888,0.0417174,1.64621,0.00251113,-0.00630173,0.0165152,0.00084053,-0.00739319,0.00507379,0,0,0,0,0,0,0,0,0,-0.000774689,-0.00209574,0.000430116,-0.000632951,-0.000340009,-0.000244698,0.000276956,-2.45031e-06,0.000353411,-0.000715702,5.12421e-05,0.00091317
123,0.00051179,-0.00102806,0.00441259,0.00676966,0.092508,0.092508,0.092508,0.092508,0.092508,0.092508,0.092508,0.092508,0.092508,-0.865238,0.907492,0.0524995,1.25496,-0.00102806,0.00441259,0.00676966,-0.0221664,-0.00166038,-0.00336179,0.00431235,-0.0260651,0.007094,0.092508,0.455168,5.17804,-0.0871566,-0.767184,0.401863,0.633197,3.01285,-5.57887,0.0055642,-0.135012,-0.055783,0.408423,0.897784,-0.239518,-3.42805,-0.0221664,-0.00166038,-0.00336179,0.00431235,-0.0260651,0.007094,0,0,0,0,0,0,0,0,0,-0.000324398,0.00192217,0.000190051,0.0042271,-0.000390017,-0.00107822,-0.000193449,-0.00170194,0.000538759,0.00207125,0.00088346,-0.00140495
124,0.00051179,0.00409365,0.0178559,0.0134903,0.07666,0.07666,0.07666,0.07666,0.07666,0.07666,0.07666,0.07666,0.07666,-0.82666,-0.186063,0.253202,0.884363,0.00409365,0.0178559,0.0134903,0.000529563,-0.0116572,-0.0032917,4.83915e-06,0.0143308,-0.00455281,0.07666,0.0330334,-0.766143,-0.00423955,0.0700605,0.0369905,-0.044884,0.528994,0.725058,0.0511808,0.177627,0.0205547,-0.130297,-0.265544,0.0454305,-0.412188,0.000529563,-0.0116572,-0.0032917,4.83915e-06,0.0143308,-0.00455281,0,0,0,0,0,0,0,0,0,-0.000501491,2.28617e-05,-0.000250041,-0.00068809,-0.00037908,9.1073e-05,0.000110975,0.000282966,0.000315964,0.000206333,6.58895e-05,5.94348e-05
125,0.00051179,-0.000745192,0.00127015,0.0131494,0.0738816,0.0738816,0.0738816,0.0738816,0.0738816,0.0738816,0.0738816,0.0738816,0.0738816,-0.926118,0.294243,0.539898,1.11165,-0.000745192,0.00127015,0.0131494,-0.000341115,0.0018553,-0.00116807,0.00501255,-0.00564622,0.00640534,0.0738816,0.0058759,-0.0685728,-0.0014249,0.00789967,-0.00145407,-0.00715934,0.0589311,0.0707721,0.00776093,-0.0198964,-0.000146856,-0.00735852,0.0107266,0.00926805,-0.064722,-0.000341115,0.0018553,-0.00116807,0.00501255,-0.00564622,0.00640534,0,0,0,0,0,0,0,0,0,-0.000587352,-1.15357e-05,0.000181219,-0.00025395,-0.000329817,-0.000176915,2.46578e-05,-2.48641e-05,0.000295714,0.000170676,-3.30666e-05,3.91574e-05
126,0.00051179,-0.011951,-0.00238448,-0.00839961,0.112599,0.112599,0.112599,0.112599,0.112599,0.112599,0.112599,0.112599,0.112599,-0.887402,-0.80693,-0.0569865,1.20078,-0.011951,-0.00238448,-0.00839961,-0.00068979,0.00701672,-0.00375583,-0.00887983,-0.000927864,0.00138623,0.112599,-0.471812,-4.40836,-0.0786595,-0.535611,0.216605,0.411415,2.08067,4.2037,-0.00940807,-0.121576,0.0647333,-0.125896,0.659572,0.166355,-1.94638,-0.00068979,0.00701672,-0.00375583,-0.00887983,-0.000927864,0.00138623,0,0,0,0,0,0,0,0,0,-0.000773504,-0.00198976,-4.90384e-05,0.00300433,-0.000422174,-0.00066739,0.000281309,0.000804854,0.000484891,0.00107226,-0.0001668,0.00121145
127,0.00051179,0.00230387,0.0043706,-0.00734962,0.0617214,0.0617214,0.0617214,0.0617214,0.0617214,0.0617214,0.0617214,0.0617214,0.0617214,-0.811721,0.418229,-0.787408,1.20574,0.00230387,0.0043706,-0.00734962,-0.00664558,0.000407383,0.00173469,0.00552916,0.00306086,-0.00255952,0.0617214,0.000298992,0.00612808,-0.000701003,0.00495134,0.000464292,0.000173304,0.0011474,-0.00889624,0.00147705,-0.00325385,-0.000734057,0.000553346,-0.0060681,0.000827316,0.00564887,-0.00664558,0.000407383,0.00173469,0.00552916,0.00306086,-0.00255952,0,0,0,0,0,0,0,0,0,-0.000390947,-3.04953e-05,-0.000208734,-0.000369305,-0.000286961,0.000205798,3.62686e-05,7.50091e-05,0.000353158,0.000388385,-5.17411e-05,-7.42341e-06
128,0.00051179,0.0120206,0.015846,0.00202563,0.117323,0.117323,0.117323,0.117323,0.117323,0.117323,0.117323,0.117323,0.117323,-0.867323,0.776512,0.355394,1.21718,0.0120206,0.015846,0.00202563,-0.000341538,0.00301679,0.00356984,-0.00304872,0.0099685,0.00755009,0.117323,0.0159034,-0.308483,-0.0114612,0.0888531,-0.0251046,-0.020592,0.197879,0.321567,-0.0185022,0.0625752,0.0172968,0.06222,-0.167274,0.0247068,-0.262124,-0.000341538,0.00301679,0.00356984,-0.00304872,0.0099685,0.00755009,0,0,0,0,0,0,0,0,0,-0.000333861,4.75001e-05,0.000558193,-0.000588545,-0.000381881,-0.000642637,-0.000138064,0.000217,0.000283666,0.000418324,5.56534e-05,0.000130976
129,0.00051179,-0.00330683,0.00147758,0.00266227,0.103274,0.103274,0.103274,0.103274,0.103274,0.103274,0.103274,0.103274,0.103274,-0.896726,0.501764,0.806178,1.30607,-0.00330683,0.00147758,0.00266227,-0.000526232,3.47365e-05,0.000426527,0.00319973,-0.000246628,0.0038985,0.103274,0.000288561,-0.000877836,0.000575311,-0.00667501,0.000350272,0.000213176,0.00464207,0.0038344,-0.000739025,0.000172846,-0.000860383,0.000415043,0.00502458,-0.000688877,-0.00771938,-0.000526232,3.47365e-05,0.000426527,0.00319973,-0.000246628,0.0038985,0,0,0,0,0,0,0,0,0,-0.000615858,-7.45681e-06,0.000229308,-0.000314519,-0.000331784,-0.000223207,6.03508e-06,2.22386e-05,0.000302814,0.000320916,-3.33087e-05,9.77968e-06
130,0.00051179,0.0229949,0.0248114,-0.00722599,0.0915858,0.0915858,0.0915858,0.0915858,0.0915858,0.0915858,0.0915858,0.0915858,0.0915858,-0.841586,0.530934,0.0166363,0.995206,0.0229949,0.0248114,-0.00722599,-0.00772578,-0.00538496,0.0167736,-0.00160053,0.00573792,-0.0032447,0.0915858,0.244869,1.88394,0.0180951,0.324492,-0.198942,0.51753,3.96697,-1.70799,0.03622,-0.0212959,0.0514138,-0.601926,-0.328007,-0.0670915,-3.35782,-0.00772578,-0.00538496,0.0167736,-0.00160053,0.00573792,-0.0032447,0,0,0,0,0,0,0,0,0,-0.000484504,0.000953299,9.7902e-05,0.00566604,-0.000295723,2.91995e-05,-5.93173e-05,0.000434254,0.000468098,-0.000323006,0.000137262,-0.000584096
131,0.00051179,0.0114173,-0.00623922,0.00623961,0.00224535,0.00224535,0.00224535,0.00224535,0.00224535,0.00224535,0.00224535,0.00224535,0.00224535,-0.752245,0.461976,0.941236,1.29043,0.0114173,-0.00623922,0.00623961,0.0171789,-0.0131226,-0.0107345,-0.00237213,0.000870321,0.0107577,0.00224535,0.000659063,-0.00978174,-0.000305884,0.00127541,0.000134203,0.000503156,0.000512082,-0.00176973,-0.00107466,-0.000544658,-0.000138682,-9.67789e-05,0.00550847,-0.000935744,-0.00665491,0.0171789,-0.0131226,-0.0107345,-0.00237213,0.000870321,0.0107577,0,0,0,0,0,0,0,0,0,-0.000664748,6.12517e-05,0.000184888,-0.000321678,-0.000359112,-0.000319173,-4.51722e-05,1.78586e-05,0.000351556,0.000219364,-1.05422e-05,2.11716e-05
132,0.00051179,0.000516032,-0.0017459,0.00195639,0.0921656,0.0921656,0.0921656,0.0921656,0.0921656,0.0921656,0.0921656,0.0921656,0.0921656,-0.907834,-0.686419,0.874549,1.43533,0.000516032,-0.0017459,0.00195639,-0.00215506,-0.000828344,-0.00284116,0.00426902,0.00335585,0.00526442,0.0921656,0.000962391,-0.00375514,0.000148781,-0.00166652,0.00105456,0.000452518,-0.000201817,0.00218456,-0.000242265,-0.000309946,-0.000506178,0.000551063,0.00372238,-0.00137834,-0.00230564,-0.00215506,-0.000828344,-0.00284116,0.00426902,0.00335585,0.00526442,0,0,0,0,0,0,0,0,0,-0.000571735,-1.37174e-05,-0.000295836,-0.000371271,-0.000346417,0.000289041,1.23797e-05,3.32668e-06,0.000320204,0.000347384,2.517e-05,1.16764e-05
133,0.00051179,0.040653,0.00126946,0.311582,0.000976395,0.000976395,0.000976395,0.000976395,0.000976395,0.000976395,0.000976395,0.000976395,0.000976395,-0.750976,-0.662746,-0.305244,1.04708,0.040653,0.00126946,0.311582,-0.059564,0.0240132,0.00442341,0.056957,-0.0124855,0.0908438,0.000976395,-4.98146e-05,-0.0577461,0.000593372,0.111435,0.0019959,0.000874411,-0.036559,0.0150972,0.0205507,0.0536217,-0.0213077,0.0286424,-0.166326,-0.022106,-0.303665,-0.059564,0.0240132,0.00442341,0.056957,-0.0124855,0.0908438,0,0,0,0,0,0,0,0,0,-0.000724606,-0.000398029,0.000484707,-0.00123831,-0.000452066,-0.000238641,0.000287579,-0.000321754,0.000401579,0.00129129,-1.61782e-05,0.000243729
134,0.00051179,-0.000455126,-0.00159292,0.00133584,0.102701,0.102701,0.102701,0.102701,0.102701,0.102701,0.102701,0.102701,0.102701,-0.897299,0.841298,-0.565719,1.35387,-0.000455126,-0.00159292,0.00133584,-0.00193602,-0.00302817,0.00189158,-1.77957e-05,-0.00192396,-0.00218431,0.102701,1.75983e-05,0.0222845,-0.00153654,0.010872,0.00215654,-0.00156006,0.0223824,-0.023986,0.0035073,-0.0342756,0.00183414,-6.63359e-05,0.0249965,-0.000803102,-0.0236519,-0.00193602,-0.00302817,0.00189158,-1.77957e-05,-0.00192396,-0.00218431,0,0,0,0,0,0,0,0,0,-0.000637256,-7.9579e-06,-0.000488282,-0.000604486,-0.000278169,0.000442635,1.90817e-05,0.000162403,0.000272714,0.000607801,-0.000163301,-1.33028e-05
135,0.00051179,0.00497245,-0.00285284,0.0102718,0.0486276,0.0486276,0.0486276,0.0486276,0.0486276,0.0486276,0.0486276,0.0486276,0.0486276,-0.798628,0.0344064,0.950182,1.24171,0.00497245,-0.00285284,0.0102718,0.00759255,0.000184403,0.000983169,-0.00377416,0.00155387,0.010497,0.0486276,0.000874415,-0.00467117,-0.000304393,-0.000858586,7.42113e-05,0.000408098,-0.00219972,-0.000375498,-0.00103316,-0.000192365,-6.43088e-05,-0.000152525,0.00390379,-0.00106565,-0.00791956,0.00759255,0.000184403,0.000983169,-0.00377416,0.00155387,0.010497,0,0,0,0,0,0,0,0,0,-0.000707723,2.72298e-05,-5.22064e-06,-0.000254423,-0.000334287,4.02074e-06,-3.91416e-05,3.11022e-05,0.000341795,0.000268335,-1.62065e-05,3.20518e-05
136,0.00051179,0.0624685,-0.0771646,0.077171,0.00382859,0.00382859,0.00382859,0.00382859,0.00382859,0.00382859,0.00382859,0.00382859,0.00382859,-0.753829,-0.908486,-0.255127,1.20776,0.0624685,-0.0771646,0.077171,-0.196038,0.0264125,0.18062,0.0432718,-0.131735,0.216184,0.00382859,0.0018961,-0.0886393,-0.00060951,0.300944,-0.00535858,0.00187455,0.25503,0.0315293,-0.00514473,0.123652,-0.028643,-0.191611,-0.347431,-0.00270888,-0.140589,-0.196038,0.0264125,0.18062,0.0432718,-0.131735,0.216184,0,0,0,0,0,0,0,0,0,-0.000932738,-0.00103701,0.000642599,-0.00148423,-0.000552559,-0.000384569,0.000124335,-0.00115505,0.000470437,0.00330917,-0.000448727,0.00100108
137,0.00051179,-0.015393,0.000624895,-0.0116703,0.0905915,0.0905915,0.0905915,0.0905915,0.0905915,0.0905915,0.0905915,0.0905915,0.0905915,-0.909409,-0.0642514,0.1105,0.918348,-0.015393,0.000624895,-0.0116703,0.00680746,0.000752617,0.00171883,0.00482295,-0.000618185,0.0129016,0.0905915,0.133402,0.636628,-0.0147536,-0.264026,0.329212,0.0371335,-0.144202,-0.950447,0.0985834,-0.0346614,-0.0134634,0.0441959,0.298062,-0.0614616,0.111677,0.00680746,0.000752617,0.00171883,0.00482295,-0.000618185,0.0129016,0,0,0,0,0,0,0,0,0,-0.000505634,0.000475984,-9.94353e-05,0.000219798,-0.000365609,-4.05743e-05,0.000291967,-7.16123e-05,0.000353597,0.000168725,-6.92039e-05,-0.000467865
138,0.00051179,0.00032472,0.00258704,0.00699657,0.0121625,0.0121625,0.0121625,0.0121625,0.0121625,0.0121625,0.0121625,0.0121625,0.0121625,-0.987838,0.843359,0.875187,1.56622,0.00032472,0.00258704,0.00699657,-0.00844073,-0.00399431,-0.00128777,0.0026049,-0.00924329,0.0077572,0.0121625,0.00124432,-0.00294015,0.000502087,-0.00429587,-0.00202958,0.000548676,-8.96375e-05,0.00464501,0.000191746,-0.00353508,-0.000726414,-0.00165687,0.00524391,-0.00271108,-0.00525006,-0.00844073,-0.00399431,-0.00128777,0.0026049,-0.00924329,0.0077572,0,0,0,0,0,0,0,0,0,-0.000554971,-3.67278e-05,0.000258474,-0.000455272,-0.000301624,-0.000293396,1.32374e-05,-1.01172e-06,0.000246391,0.000447881,-9.86853e-05,2.44848e-05
139,0.00051179,0.0225234,0.00739805,0.00624751,0.074359,0.074359,0.074359,0.074359,0.074359,0.074359,0.074359,0.074359,0.074359,-0.925641,-0.420901,0.27829,1.05424,0.0225234,0.00739805,0.00624751,-0.00318783,0.000708548,0.0128343,-0.000130122,-0.00584978,-0.00139564,0.074359,0.151068,-0.787361,-0.011652,0.0217993,-0.0412449,-0.0999556,-0.167951,0.806083,0.0414147,0.129826,0.0300013,0.0238106,-0.159024,0.0394326,0.137893,-0.00318783,0.000708548,0.0128343,-0.000130122,-0.00584978,-0.00139564,0,0,0,0,0,0,0,0,0,-0.000465162,0.000477245,-0.000364762,-0.000542698,-0.000390226,0.000255327,-5.57328e-05,0.000224417,0.000307284,-0.000328516,1.70979e-05,-7.19708e-05
140,0.00051179,0.0255623,0.0086254,0.00480828,0.0720547,0.0720547,0.0720547,0.0720547,0.0720547,0.0720547,0.0720547,0.0720547,0.0720547,-0.927945,-0.415137,0.284785,1.05571,0.0255623,0.0086254,0.00480828,-0.00245411,0.000752032,0.0113031,0.000254377,-0.00498059,-0.00213395,0.0720547,0.138308,-0.765472,-0.0107517,0.0249308,-0.0349289,-0.0932143,-0.12388,0.774838,0.039751,0.129943,0.028826,0.0182959,-0.1635,0.0383222,0.100776,-0.00245411,0.000752032,0.0113031,0.000254377,-0.00498059,-0.00213395,0,0,0,0,0,0,0,0,0,-0.000471748,0.0004346,-0.000351963,-0.000515908,-0.0003896,0.000251966,-4.46434e-05,0.000226121,0.000307687,-0.000303204,1.2333e-05,-6.3729e-05
141,0.00051179,-0.0229868,-0.00279352,-0.0228695,0.104441,0.104441,0.104441,0.104441,0.104441,0.104441,0.104441,0.104441,0.104441,-0.854441,0.750368,-0.193238,1.15346,-0.0229868,-0.00279352,-0.0228695,-0.0124579,0.00918396,0.00690326,0.012896,-0.00567178,-0.0121829,0.104441,-0.411702,0.538981,0.053586,0.00906312,0.409743,-0.220244,-2.12109,-0.925737,-0.0196993,0.162609,0.0388376,0.333283,-0.168879,-0.0552532,1.81068,-0.0124579,0.00918396,0.00690326,0.012896,-0.00567178,-0.0121829,0,0,0,0,0,0,0,0,0,-0.000937454,-0.00154572,-0.000239751,-0.00188486,-0.000167632,0.000867451,0.00054106,0.000106506,0.000271387,-0.000248552,0.000225152,0.000237896
142,0.00051179,-0.00942773,0.00244329,-0.00630312,0.0586214,0.0586214,0.0586214,0.0586214,0.0586214,0.0586214,0.0586214,0.0586214,0.0586214,-0.941379,-0.857896,-0.480503,1.36127,-0.00942773,0.00244329,-0.00630312,-0.0024689,0.00170778,-0.00199037,0.000534224,0.00963259,-0.000639687,0.0586214,-0.00130926,0.0601307,-0.00378519,0.0385178,-0.0131291,-0.00421121,0.0656412,-0.0375739,-0.00102474,0.0138296,-0.00639858,-0.0293734,-0.0547907,-0.00171075,-0.0299648,-0.0024689,0.00170778,-0.00199037,0.000534224,0.00963259,-0.000639687,0,0,0,0,0,0,0,0,0,-0.000689693,-1.12534e-05,0.000580901,-0.000593403,-0.00031882,-0.000601675,5.18485e-06,-0.000200205,0.000271074,0.000531387,0.000232545,-4.11474e-06
143,0.00051179,-1.932e-05,-0.00167142,0.00283836,0.0681739,0.0681739,0.0681739,0.0681739,0.0681739,0.0681739,0.0681739,0.0681739,0.0681739,-0.872464,-0.718851,0.931826,1.46501,-1.932e-05,-0.00167142,0.00283836,-0.00288657,-0.000189433,-0.00267365,0.00252597,0.00032049,0.00528993,0.0681739,0.00108935,-0.00115669,-0.000214629,-0.00157258,0.000867772,0.00049457,-0.000574385,0.000308235,-0.000643255,-7.86768e-05,-0.000405193,0.000296128,0.00332268,-0.00122388,-0.00256011,-0.00288657,-0.000189433,-0.00267365,0.00252597,0.00032049,0.00528993,0,0,0,0,0,0,0,0,0,-0.000584923,-1.37763e-05,-0.000282702,-0.000395711,-0.000336999,0.000278661,4.62334e-06,-1.50373e-05,0.000333086,0.00037392,1.41903e-05,1.554e-05
144,0.00051179,-0.000897749,-0.00371138,-9.07998e-05,0.0850464,0.0850464,0.0850464,0.0850464,0.0850464,0.0850464,0.0850464,0.0850464,0.0850464,-0.914954,0.454971,-0.911301,1.36916,-0.000897749,-0.00371138,-9.07998e-05,-0.00327856,-0.000736421,0.00120665,-0.00709508,-0.00163298,0.000347483,0.0850464,0.000974908,-0.00228849,-0.000721596,0.00319957,-0.0001328,0.00117906,-0.00405638,0.00331904,-0.00108066,0.00107908,7.21822e-05,6.76698e-05,-0.000567273,-0.00140173,0.00407951,-0.00327856,-0.000736421,0.00120665,-0.00709508,-0.00163298,0.000347483,0,0,0,0,0,0,0,0,0,-0.000351138,1.7898e-06,-0.000192358,-0.000373007,-0.000315273,0.000177778,-2.75707e-05,6.53279e-05,0.000310026,0.000396864,-8.09359e-05,8.03679e-06
145,0.00051179,0.0181656,-0.00102398,-0.0254363,0.0263492,0.0263492,0.0263492,0.0263492,0.0263492,0.0263492,0.0263492,0.0263492,0.0263492,-0.973651,-0.196882,-0.338824,1.04955,0.0181656,-0.00102398,-0.0254363,-0.0087214,-0.00289098,-0.00703584,0.00191046,-0.0118166,0.00265904,0.0263492,-0.0449251,0.220939,0.0101339,-0.0499183,-0.044841,-0.0358753,0.0264889,-0.194264,-0.0308469,0.00305159,0.007848,-0.048454,0.0478907,-0.0102481,0.0474014,-0.0087214,-0.00289098,-0.00703584,0.00191046,-0.0118166,0.00265904,0,0,0,0,0,0,0,0,0,-0.000505857,-0.000164188,9.03713e-05,-0.000413456,-0.000313455,-1.79424e-05,-4.06377e-05,-3.15017e-06,0.000325441,-1.56556e-05,-3.65359e-05,6.60994e-05
146,0.00051179,0.00142132,0.0122233,-0.00552355,0.0453726,0.0453726,0.0453726,0.0453726,0.0453726,0.0453726,0.0453726,0.0453726,0.0453726,-0.795373,0.199221,-0.731617,1.09889,0.00142132,0.0122233,-0.00552355,-0.00648735,0.000681377,0.000549067,0.00785553,0.00082447,-0.00338078,0.0453726,0.000367001,0.00424704,-0.000788264,0.00863566,0.000433145,-0.000247259,0.00852785,-0.0061015,0.00605221,-0.0103836,-0.00154242,0.00163443,-0.0104754,0.00130897,-0.00463873,-0.00648735,0.000681377,0.000549067,0.00785553,0.00082447,-0.00338078,0,0,0,0,0,0,0,0,0,-0.000374891,-3.71967e-05,-0.000113682,-0.000327328,-0.000292147,0.000112614,6.29438e-05,2.80656e-05,0.00036791,0.000330346,-3.52451e-05,-1.6954e-05
147,0.00051179,-0.000474649,0.00187764,0.00343153,0.0706414,0.0706414,0.0706414,0.0706414,0.0706414,0.0706414,0.0706414,0.0706414,0.0706414,-0.929359,-0.29152,0.767281,1.23992,-0.000474649,0.00187764,0.00343153,-0.00417149,-0.00174574,-0.00118507,0.00776316,0.00104466,0.00252045,0.0706414,0.000822201,-0.0108242,0.000501283,-0.00489137,-0.000742587,-0.000900559,0.020644,0.0120414,-0.000732826,0.000229917,-0.000691487,7.98907e-05,0.00278382,0.000824902,-0.0241554,-0.00417149,-0.00174574,-0.00118507,0.00776316,0.00104466,0.00252045,0,0,0,0,0,0,0,0,0,-0.000636436,-2.48538e-05,-0.000167614,-0.000240727,-0.000345076,0.000155169,2.70443e-05,1.84769e-05,0.000314958,0.00021987,-1.49452e-05,8.61938e-06
148,0.00051179,0.0187207,-0.0245256,0.0210543,0.0301357,0.0301357,0.0301357,0.0301357,0.0301357,0.0301357,0.0301357,0.0301357,0.0301357,-0.969864,-0.111213,-0.207155,0.997957,0.0187207,-0.0245256,0.0210543,-0.0035624,0.00427584,-0.00180044,-0.00181563,-0.00297491,-0.0130872,0.0301357,-0.103046,-0.128507,0.0109577,0.148209,-0.197013,-0.0274245,-0.233882,0.3068,-0.0431549,0.0634602,-0.00513858,-0.04118,-0.187143,0.0165693,0.254008,-0.0035624,0.00427584,-0.00180044,-0.00181563,-0.00297491,-0.0130872,0,0,0,0,0,0,0,0,0,-0.000552043,-0.000362162,9.1986e-05,-0.000325901,-0.000317717,6.0349e-05,-5.39714e-05,-1.8559e-05,0.000337996,3.36519e-05,-6.25759e-05,0.000188291
149,0.00051179,-0.00151942,0.00280963,-0.00956946,0.0908485,0.0908485,0.0908485,0.0908485,0.0908485,0.0908485,0.0908485,0.0908485,0.0908485,-0.909151,-0.117687,-0.545898,1.06696,-0.00151942,0.00280963,-0.00956946,-0.0030197,0.000796153,0.000412136,-0.00548966,0.000207174,-0.00163057,0.0908485,-0.00187711,0.0464829,-0.00188982,0.00949205,-0.000643797,-0.00601248,0.0517767,-0.0443197,0.0072778,0.00145588,-0.00534409,-0.000819205,-0.0137576,-0.00403646,-0.041388,-0.0030197,0.000796153,0.000412136,-0.00548966,0.000207174,-0.00163057,0,0,0,0,0,0,0,0,0,-0.000422619,-1.43583e-05,6.76719e-05,-0.000335244,-0.000311637,-7.86085e-05,1.90665e-05,-4.13987e-05,0.000337258,0.00027924,-9.97043e-06,-1.82093e-05
150,0.00051179,0.04778,0.0236421,-0.00746155,0.0808028,0.0808028,0.0808028,0.0808028,0.0808028,0.0808028,0.0808028,0.0808028,0.0808028,-0.830803,0.648849,0.0693182,1.05643,0.04778,0.0236421,-0.00746155,-0.00506404,0.00198629,0.0206349,0.00226665,0.00061013,0.0099175,0.0808028,1.05712,10.0313,-0.00708117,0.3508,-0.882629,0.349956,1.2627,-9.19641,0.107834,-0.355379,-0.0296025,-0.353834,-0.0190624,-0.233613,-0.901409,-0.00506404,0.00198629,0.0206349,0.00226665,0.00061013,0.0099175,0,0,0,0,0,0,0,0,0,-0.000146158,0.00417744,0.00017834,0.00456236,-0.000330234,-0.000229289,-0.00053234,-0.000488996,0.000403598,-0.000856447,0.000199072,-0.00220132
151,0.00051179,0.0132243,-0.00277486,-0.0020866,0.120552,0.120552,0.120552,0.120552,0.120552,0.120552,0.120552,0.120552,0.120552,-0.879448,0.836982,-0.463216,1.29944,0.0132243,-0.00277486,-0.0020866,-0.00408448,-0.00576219,0.00207002,-0.000888621,0.00366729,-0.00341226,0.120552,-0.00178657,0.0197044,9.17986e-05,-0.0110539,-0.00713213,-0.00376359,0.0367106,-0.0257966,0.00798182,-0.0695164,0.00674616,-0.00730988,0.0833451,-0.00389356,-0.0273141,-0.00408448,-0.00576219,0.00207002,-0.000888621,0.00366729,-0.00341226,0,0,0,0,0,0,0,0,0,-0.000699244,-2.23357e-05,-0.000588558,-0.000648733,-0.000249321,0.000531854,4.24856e-05,0.000242005,0.000282034,0.000631797,-0.000137871,-2.95095e-05
152,0.00051179,0.0184582,0.00820559,0.023643,0.04556,0.04556,0.04556,0.04556,0.04556,0.04556,0.04556,0.04556,0.04556,-0.95444,-0.323325,-0.154588,1.01951,0.0184582,0.00820559,0.023643,0.00358997,-0.0226717,0.00241331,-0.00614068,-0.0181844,-0.0112958,0.04556,-0.293985,-1.20507,0.0690716,0.451182,-0.0288948,-0.048505,-0.49062,1.21551,-0.069959,0.0851865,-0.0117612,-0.0455029,-0.544574,0.0432557,0.51248,0.00358997,-0.0226717,0.00241331,-0.00614068,-0.0181844,-0.0112958,0,0,0,0,0,0,0,0,0,-0.000619538,-0.00106597,0.00029881,-0.00027049,-0.00031429,0.000165189,5.50302e-06,-0.000178618,0.000375062,-0.000190426,-0.000120838,0.000545801
153,0.00051179,-0.00794196,0.00933663,-0.00770615,0.116898,0.116898,0.116898,0.116898,0.116898,0.116898,0.116898,0.116898,0.116898,-0.883102,-0.290161,-0.422788,1.02118,-0.00794196,0.00933663,-0.00770615,-0.00272129,-0.00177731,-0.000758834,-0.00271775,0.00663839,-0.00407507,0.116898,-0.0104893,0.194629,0.000395663,-0.0152142,0.000221403,-0.0163932,0.191517,-0.186908,0.005738,-0.0181293,-0.00521541,-0.00345586,0.0240069,-0.0158273,-0.180355,-0.00272129,-0.00177731,-0.000758834,-0.00271775,0.00663839,-0.00407507,0,0,0,0,0,0,0,0,0,-0.000489302,-3.13307e-05,0.000176996,-0.000435969,-0.000324303,-0.000190812,4.98237e-05,-1.12595e-05,0.000338785,0.000264449,2.54893e-05,-6.47894e-05
154,0.00051179,-0.0591198,-0.00196975,-0.0816765,0.0791419,0.0791419,0.0791419,0.0791419,0.0791419,0.0791419,0.0791419,0.0791419,0.0791419,-0.670858,0.206662,0.0198787,0.70225,-0.0591198,-0.00196975,-0.0816765,0.00643552,-0.0113558,0.0285535,0.012637,0.00101428,-0.00615402,0.0791419,0.188279,0.123279,0.158357,0.661899,0.707709,0.00397996,-3.4841,-0.771868,0.171826,0.21172,0.216789,1.32189,-0.871649,0.0357151,2.24389,0.00643552,-0.0113558,0.0285535,0.012637,0.00101428,-0.00615402,0,0,0,0,0,0,0,0,0,-0.000428237,0.000501951,0.000810614,0.00642232,-0.000242794,0.000659397,0.000450694,0.00455615,8.28579e-05,-0.00609699,-0.00237811,-0.000323816
155,0.00051179,0.00377825,0.00837926,-0.00836649,0.0126002,0.0126002,0.0126002,0.0126002,0.0126002,0.0126002,0.0126002,0.0126002,0.0126002,-0.7626,-0.259984,0.754091,1.10354,0.00377825,0.00837926,-0.00836649,0.00835473,-0.00418437,0.00108955,-0.00971531,-0.00461396,0.0101195,0.0126002,6.00368e-05,-0.00350667,2.57045e-06,-0.00789305,0.000478194,0.000331279,0.0106507,-0.000749772,-0.00127234,-0.00110196,-0.000781372,3.02222e-05,0.00061575,0.000180162,-0.00231442,0.00835473,-0.00418437,0.00108955,-0.00971531,-0.00461396,0.0101195,0,0,0,0,0,0,0,0,0,-0.000638269,3.31583e-05,-0.000155275,-0.000238567,-0.000320429,0.000113457,-6.38538e-05,-1.03386e-05,0.000352889,0.000252776,-4.36147e-05,4.25829e-05
156,0.00051179,0.000410145,0.000491456,-0.00185723,0.0982892,0.0982892,0.0982892,0.0982892,0.0982892,0.0982892,0.0982892,0.0982892,0.0982892,-0.901711,-0.0299044,-0.844443,1.23574,0.000410145,0.000491456,-0.00185723,-0.00733004,-0.000496354,0.0020287,-0.00398502,-0.00211167,-0.00149041,0.0982892,-0.000268146,0.00910858,-0.00109114,0.00613005,2.87446e-05,0.000786707,-0.00338559,-0.00954747,-0.00103384,0.000783232,-0.000430932,0.000657647,-0.00740474,-0.000860058,0.00458517,-0.00733004,-0.000496354,0.0020287,-0.00398502,-0.00211167,-0.00149041,0,0,0,0,0,0,0,0,0,-0.0003241,-2.07207e-05,1.12628e-05,-0.000305656,-0.000304008,-2.71378e-05,-7.82412e-06,-7.87931e-06,0.000339828,0.00033381,-1.75467e-05,5.51786e-06
157,0.00051179,-0.016448,-0.00983915,0.0342696,0.0660736,0.0660736,0.0660736,0.0660736,0.0660736,0.0660736,0.0660736,0.0660736,0.0660736,-0.816074,-0.517095,0.249229,0.997737,-0.016448,-0.00983915,0.0342696,0.0131677,-0.00256664,-0.0310852,0.0121849,0.00782933,0.00229274,0.0660736,0.0741441,-2.16989,0.000856407,0.164658,-0.0806098,-0.113463,1.79359,2.26695,-0.0329944,0.185427,0.020309,0.216102,-0.340246,0.146784,-2.04396,0.0131677,-0.00256664,-0.0310852,0.0121849,0.00782933,0.00229274,0,0,0,0,0,0,0,0,0,-0.000347845,0.000187813,-0.000521575,-0.00179048,-0.000339979,0.000504472,-0.000352793,0.000225457,0.000284091,0.000344998,5.59265e-05,0.00049664
158,0.00051179,0.000234999,0.000418012,-0.00157495,0.124523,0.124523,0.124523,0.124523,0.124523,0.124523,0.124523,0.124523,0.124523,-0.875477,0.85647,0.6372,1.38059,0.000234999,0.000418012,-0.00157495,-0.00217132,-4.46849e-05,0.00105757,-2.37715e-05,0.00311177,0.0043376,0.124523,0.00112362,-0.0116668,9.37656e-05,0.00434647,-0.000899923,-0.00059573,0.0158568,0.0123317,-0.000476765,0.00243057,-0.000534037,-0.00121547,-0.00719506,-0.000386633,-0.0130664,-0.00217132,-4.46849e-05,0.00105757,-2.37715e-05,0.00311177,0.0043376,0,0,0,0,0,0,0,0,0,-0.000441559,-8.01086e-06,0.000399952,-0.000481406,-0.000345761,-0.000399461,-5.27506e-06,7.47273e-05,0.000293486,0.000486025,-4.89499e-05,1.69824e-05
159,0.00051179,0.00558016,-0.0119908,0.0107953,0.0134631,0.0134631,0.0134631,0.0134631,0.0134631,0.0134631,0.0134631,0.0134631,0.0134631,-0.814088,-0.986537,-0.541589,1.389,0.00558016,-0.0119908,0.0107953,0.0157254,0.00108362,-0.00525079,-0.000118724,-0.000604572,-0.00979049,0.0134631,0.00100781,-0.00382501,-0.000667565,-0.00725864,-0.00406912,0.000479121,-0.0342458,0.00231397,0.00147341,0.0246079,-0.000644364,-0.0286755,-0.00535848,0.00945172,0.0521261,0.0157254,0.00108362,-0.00525079,-0.000118724,-0.000604572,-0.00979049,0,0,0,0,0,0,0,0,0,-0.000716858,6.31863e-05,0.000435175,-0.000654488,-0.000371421,-0.000431015,-1.37063e-05,-0.000251576,0.000322491,0.000606771,0.000239087,-2.21736e-05
160,0.00051179,0.0398183,0.0438472,-0.0243702,0.0368478,0.0368478,0.0368478,0.0368478,0.0368478,0.0368478,0.0368478,0.0368478,0.0368478,-0.713152,0.533118,-0.0275821,0.890821,0.0398183,0.0438472,-0.0243702,-0.0203587,-0.0255291,0.0574493,-0.0101542,0.00340951,0.0174446,0.0368478,-1.15798,-7.6344,-0.179507,-1.66339,0.802208,0.551981,-7.83565,6.79238,-0.289889,-0.117789,0.219483,-1.18268,1.73733,-0.27045,9.0427,-0.0203587,-0.0255291,0.0574493,-0.0101542,0.00340951,0.0174446,0,0,0,0,0,0,0,0,0,-0.00108006,-0.00389394,-0.000848933,0.0173225,-0.000395114,-0.00120143,0.00049754,0.00253056,-1.25393e-05,-0.0112282,-0.000301636,0.000732729
161,0.00051179,0.0125035,0.00210081,-0.00498553,0.0186458,0.0186458,0.0186458,0.0186458,0.0186458,0.0186458,0.0186458,0.0186458,0.0186458,-0.768646,0.899004,-0.781998,1.41794,0.0125035,0.00210081,-0.00498553,-0.00676882,0.00192833,-0.000870299,-0.00196024,0.00455259,0.00319191,0.0186458,0.00110371,-0.011124,-0.000461809,0.0100228,-0.000680819,0.000357017,-0.00249652,-0.000698654,0.00132544,-0.00661684,-4.83505e-05,0.00433178,-0.00550675,0.00221027,0.00315028,-0.00676882,0.00192833,-0.000870299,-0.00196024,0.00455259,0.00319191,0,0,0,0,0,0,0,0,0,-0.000534497,-2.72897e-05,-0.000338409,-0.00058473,-0.000264818,0.000353074,-2.13816e-06,0.000150457,0.000338107,0.000579597,-0.000105415,2.80467e-05
162,0.00051179,0.00852427,0.0082775,0.00392042,0.0308201,0.0308201,0.0308201,0.0308201,0.0308201,0.0308201,0.0308201,0.0308201,0.0308201,-0.96918,0.36713,0.65642,1.22678,0.00852427,0.0082775,0.00392042,0.000930498,-0.00051604,-0.00231329,0.00776377,-0.0043919,0.00098015,0.0308201,0.00276203,-0.0353407,-0.000622205,0.0129642,-0.000438281,-0.00382051,0.0327883,0.0272548,0.00739829,-0.008496,-0.00064204,-0.0025677,-0.0127457,0.00563826,-0.034141,0.000930498,-0.00051604,-0.00231329,0.00776377,-0.0043919,0.00098015,0,0,0,0,0,0,0,0,0,-0.000601873,-1.09293e-05,0.000197603,-0.000251188,-0.000320489,-0.000208985,4.64184e-05,-6.42178e-06,0.00028792,0.00018985,-4.39176e-05,3.70012e-06
163,0.00051179,0.0146544,0.0140365,-0.00656033,0.0230213,0.0230213,0.0230213,0.0230213,0.0230213,0.0230213,0.0230213,0.0230213,0.0230213,-0.773021,0.321483,0.0115643,0.837285,0.0146544,0.0140365,-0.00656033,0.0176006,-0.0233993,-0.00155818,0.00182686,-0.0133743,-0.0121592,0.0230213,0.141718,0.992414,0.0636966,0.55342,0.0466812,0.427367,0.600613,-1.05375,0.0502331,0.0274447,0.212069,0.163239,-0.594902,-0.0286679,-0.757292,0.0176006,-0.0233993,-0.00155818,0.00182686,-0.0133743,-0.0121592,0,0,0,0,0,0,0,0,0,-0.000493191,0.000599804,0.000213319,0.00614211,-0.000289226,0.000189654,6.35091e-05,0.0020849,0.000376172,-0.00188402,-9.79471e-05,-0.000400926
164,0.00051179,-0.00333071,-0.0357067,0.0151324,0.108051,0.108051,0.108051,0.108051,0.108051,0.108051,0.108051,0.108051,0.108051,-0.891949,0.548885,-0.109361,1.053,-0.00333071,-0.0357067,0.0151324,-0.00197856,0.00427895,0.00358343,0.00505416,-0.015237,0.00131643,0.108051,-0.69935,-5.43407,-0.0556164,-0.577559,0.67004,0.00529915,-0.799373,4.76736,-0.0818757,0.150395,-0.00646179,-0.121262,0.462871,0.133024,0.905503,-0.00197856,0.00427895,0.00358343,0.00505416,-0.015237,0.00131643,0,0,0,0,0,0,0,0,0,-0.00084465,-0.00276378,-0.000452941,0.000677531,-0.000304008,-6.04335e-05,0.000358749,-0.000194822,0.000377975,-0.000588706,-2.21663e-05,0.00141456
165,0.00051179,-0.000130324,0.00319081,0.00139981,0.119898,0.119898,0.119898,0.119898,0.119898,0.119898,0.119898,0.119898,0.119898,-0.869898,-0.394495,0.631028,1.14479,-0.000130324,0.00319081,0.00139981,-0.00158476,0.00128989,0.000314813,-0.000333359,0.000450738,0.00429724,0.119898,0.00122012,-0.0151473,0.000169821,0.00120572,-0.00110878,-0.00116662,0.0248937,0.0163864,-0.000809865,-0.00202024,-0.000812425,0.00129641,-0.00237629,0.00213502,-0.0275899,-0.00158476,0.00128989,0.000314813,-0.000333359,0.000450738,0.00429724,0,0,0,0,0,0,0,0,0,-0.000583187,-7.50518e-06,-0.000251486,-0.000239972,-0.000336373,0.000266084,-1.13981e-05,1.76383e-05,0.000328183,0.000231454,-2.12552e-05,2.64793e-05
166,0.00051179,0.00131933,-0.00637958,0.0035807,0.0654931,0.0654931,0.0654931,0.0654931,0.0654931,0.0654931,0.0654931,0.0654931,0.0654931,-0.934507,0.849631,-0.777715,1.48325,0.00131933,-0.00637958,0.0035807,5.14323e-07,-0.00213935,0.00255673,-0.00156548,-0.00922261,-0.000968384,0.0654931,0.00115021,-0.000243538,-0.00109702,0.00561001,0.00213496,0.00135086,-0.00891717,-0.00321075,-0.000940653,-0.0012784,0.000367081,0.00147962,0.00204797,-0.000804696,0.00385685,5.14323e-07,-0.00213935,0.00255673,-0.00156548,-0.00922261,-0.000968384,0,0,0,0,0,0,0,0,0,-0.000519268,9.3634e-06,-0.000351839,-0.000542461,-0.000316793,0.000319475,-8.92088e-06,8.58541e-05,0.00024993,0.000581537,-0.000174409,-5.2556e-06
167,0.00051179,-0.00287101,0.000826973,0.00159807,0.102927,0.102927,0.102927,0.102927,0.102927,0.102927,0.102927,0.102927,0.102927,-0.852926,-0.601552,0.580717,1.1944,-0.00287101,0.000826973,0.00159807,-0.00119631,0.000751607,-0.00026782,-0.00264384,-0.00253086,0.00804953,0.102927,0.00150277,-0.0216196,0.000426717,-0.00271453,-0.00207268,-0.00200706,0.0349552,0.0265633,-0.00084533,-0.00214786,-0.00149507,0.00508048,0.00403542,0.00242051,-0.0416337,-0.00119631,0.000751607,-0.00026782,-0.00264384,-0.00253086,0.00804953,0,0,0,0,0,0,0,0,0,-0.000502907,-6.87619e-06,-0.000394424,-0.00031057,-0.000326836,0.000406207,-2.58543e-05,-2.48723e-05,0.000334322,0.000287821,-1.5387e-05,4.39418e-05
168,0.00051179,0.00461506,-0.00012346,-0.00360373,0.0825693,0.0825693,0.0825693,0.0825693,0.0825693,0.0825693,0.0825693,0.0825693,0.0825693,-0.917431,0.332609,-0.694408,1.19771,0.00461506,-0.00012346,-0.00360373,-0.00280854,-0.00213823,-0.000228822,-0.0032379,-0.00180847,-0.000315739,0.0825693,-0.000924632,0.0213303,-0.00229197,0.0162613,0.00119287,-0.00140921,0.00775623,-0.0271383,0.00295679,-0.00131459,-0.00135299,0.00481405,-0.0148232,-0.00105054,-0.00896654,-0.00280854,-0.00213823,-0.000228822,-0.0032379,-0.00180847,-0.000315739,0,0,0,0,0,0,0,0,0,-0.000404693,-1.24575e-05,-0.000192209,-0.000338364,-0.000302965,0.000147907,4.80279e-06,3.42146e-05,0.00031966,0.000321983,-6.58292e-05,-6.2307e-07
169,0.00051179,-0.00616536,0.00220522,-0.000784747,0.00843059,0.00843059,0.00843059,0.00843059,0.00843059,0.00843059,0.00843059,0.00843059,0.00843059,-0.991569,0.276946,0.877849,1.35297,-0.00616536,0.00220522,-0.000784747,0.00226048,-0.00072202,-0.00152252,0.0142575,-0.00291806,0.00500745,0.00843059,0.00117399,-0.00690259,0.000652201,-0.00615606,0.000635112,-0.000531305,0.0217021,0.0124328,0.00219925,-0.00313844,-0.000590094,-0.000592902,0.00708929,-0.00130416,-0.0203245,0.00226048,-0.00072202,-0.00152252,0.0142575,-0.00291806,0.00500745,0,0,0,0,0,0,0,0,0,-0.000674121,-1.00521e-05,0.000112761,-0.000281934,-0.000321621,-0.000113459,5.50593e-05,3.63513e-06,0.000285618,0.000261396,-3.87166e-05,-8.70797e-06
170,0.00051179,-0.0104205,0.00632036,-0.0663813,0.0170165,0.0170165,0.0170165,0.0170165,0.0170165,0.0170165,0.0170165,0.0170165,0.0170165,-0.982983,0.350665,-0.345414,1.09933,-0.0104205,0.00632036,-0.0663813,-0.00302024,0.00611903,0.0067711,0.00129527,0.00436282,0.00442239,0.0170165,-0.0916825,0.401686,-0.00470274,0.0573209,0.00609414,-0.0645361,0.0361733,-0.397359,-0.0200286,0.047371,-0.01,-0.0175301,-0.111012,-0.020076,0.0477381,-0.00302024,0.00611903,0.0067711,0.00129527,0.00436282,0.00442239,0,0,0,0,0,0,0,0,0,-0.000526205,-0.000324564,-0.000191133,-0.000409878,-0.000325048,0.000205295,5.52831e-05,-2.95114e-05,0.000310339,-0.000167771,-2.68604e-05,7.06814e-05
171,0.00051179,-0.00413152,-0.0032667,0.00276617,0.0379688,0.0379688,0.0379688,0.0379688,0.0379688,0.0379688,0.0379688,0.0379688,0.0379688,-0.947659,0.356925,-0.962031,1.39677,-0.00413152,-0.0032667,0.00276617,-0.00511823,-0.000255829,0.00100518,-0.0125906,-0.00255312,-0.000695915,0.0379688,0.00230516,-0.011552,-0.000482611,0.00229251,-0.00022873,0.000872068,-0.00238978,0.0159123,-0.00130901,0.00196413,0.000169209,-4.83046e-05,-0.000989942,-0.00166763,-0.000328086,-0.00511823,-0.000255829,0.00100518,-0.0125906,-0.00255312,-0.000695915,0,0,0,0,0,0,0,0,0,-0.000316098,7.94573e-06,-0.000148586,-0.000356607,-0.000319684,0.000141202,-4.74871e-05,5.2345e-05,0.000304751,0.00037538,-7.61841e-05,1.01933e-05
172,0.00051179,0.0038808,0.00507015,-0.0430645,0.00297066,0.00297066,0.00297066,0.00297066,0.00297066,0.00297066,0.00297066,0.00297066,0.00297066,-0.997029,-0.492471,0.401937,1.18243,0.0038808,0.00507015,-0.0430645,0.0196366,0.00541017,-0.00419095,0.0127852,0.0032207,-0.0194759,0.00297066,0.0484756,-0.264989,0.00116617,-0.0494925,-0.0453052,-0.0370895,0.0209573,0.306414,0.0222566,0.0866019,0.0096861,0.0601959,-0.0421796,0.0185225,-0.0380888,0.0196366,0.00541017,-0.00419095,0.0127852,0.0032207,-0.0194759,0,0,0,0,0,0,0,0,0,-0.00050234,0.000222637,-0.000361786,-0.000173526,-0.000391835,0.000427549,5.72852e-05,0.000139109,0.00031738,-0.000239279,-1.00411e-05,-0.000122691
173,0.00051179,-0.140711,0.00578344,0.0431547,0.00838009,0.00838009,0.00838009,0.00838009,0.00838009,0.00838009,0.00838009,0.00838009,0.00838009,-0.731837,-0.070071,-0.0916199,0.740871,-0.140711,0.00578344,0.0431547,0.0163978,-0.0067802,0.136201,0.0529293,0.000491505,-0.0324395,0.00838009,-0.3969,-3.54769,0.133333,1.30949,-1.87776,-0.0748629,-1.97354,5.56617,-0.429125,0.332924,0.0085801,-0.244643,-1.64819,-0.0996095,2.17502,0.0163978,-0.0067802,0.136201,0.0529293,0.000491505,-0.0324395,0,0,0,0,0,0,0,0,0,-0.000707828,-0.000877034,0.00062696,0.000842069,-0.000279093,0.000638567,-0.0008555,-0.000157334,0.00037992,-0.000228685,0.00024805,0.000365232
174,0.00051179,0.00139118,-0.000659581,-0.00329937,0.108333,0.108333,0.108333,0.108333,0.108333,0.108333,0.108333,0.108333,0.108333,-0.858333,-0.363315,-0.744056,1.19262,0.00139118,-0.000659581,-0.00329937,-0.0068989,0.00332558,0.0025589,0.000246542,-0.00350315,-0.00367765,0.108333,-0.000103697,0.0144467,-0.0011897,0.00851655,-0.000909785,-0.000573128,0.00536636,-0.0149281,0.00142999,0.00327469,-0.00104094,-0.00254359,-0.0111317,6.90967e-05,0.000476597,-0.0068989,0.00332558,0.0025589,0.000246542,-0.00350315,-0.00367765,0,0,0,0,0,0,0,0,0,-0.000393294,-2.47038e-05,0.000210759,-0.000330069,-0.000313515,-0.0001894,1.86918e-05,-6.90998e-05,0.000353031,0.000349927,2.36589e-05,-7.73359e-06
175,0.00051179,0.0144686,0.007823,0.015271,0.046913,0.046913,0.046913,0.046913,0.046913,0.046913,0.046913,0.046913,0.046913,-0.796913,0.166524,-0.484793,0.947536,0.0144686,0.007823,0.015271,-0.00708519,0.00331254,0.0016522,-0.000288994,-0.00236191,0.0030709,0.046913,-0.0004711,-0.00363354,-0.000413232,0.00402286,0.000226307,-0.0016058,0.0414336,-0.0110614,0.0270891,0.00212132,-0.0056792,0.00340897,-0.0139672,-0.0060058,-0.0601136,-0.00708519,0.00331254,0.0016522,-0.000288994,-0.00236191,0.0030709,0,0,0,0,0,0,0,0,0,-0.000452004,-5.65995e-05,-0.000112952,-0.000376815,-0.000295991,0.000141945,0.000115183,-3.82033e-05,0.000363678,0.000377279,-4.22078e-05,-3.34925e-05
176,0.00051179,-0.00796179,0.00223191,0.00497209,0.0315688,0.0315688,0.0315688,0.0315688,0.0315688,0.0315688,0.0315688,0.0315688,0.0315688,-0.968431,0.3955,0.832902,1.33716,-0.00796179,0.00223191,0.00497209,-0.00112049,-0.0012278,-0.00254848,0.0109045,-0.00354861,0.00358301,0.0315688,0.000690356,-0.00516593,0.000888534,-0.0068372,0.000741626,-0.000366509,0.0174672,0.0123861,0.00058843,-0.00237407,-0.000875262,-9.19248e-05,0.00697935,-0.000846017,-0.0223474,-0.00112049,-0.0012278,-0.00254848,0.0109045,-0.00354861,0.00358301,0,0,0,0,0,0,0,0,0,-0.00064455,-1.80735e-05,0.000176208,-0.000292535,-0.000319386,-0.000179601,4.15417e-05,3.48924e-06,0.000286713,0.000263385,-4.7728e-05,-2.23785e-06
177,0.00051179,-0.0121253,-0.0103364,0.0380995,0.0762859,0.0762859,0.0762859,0.0762859,0.0762859,0.0762859,0.0762859,0.0762859,0.0762859,-0.923714,-0.619036,-0.0465332,1.11293,-0.0121253,-0.0103364,0.0380995,0.00669899,0.0049088,-0.00779579,-0.00967769,-0.00507076,0.00582664,0.0762859,-0.310971,-2.80334,-0.00858375,0.0864808,0.298569,0.25131,1.73334,2.51689,-0.0205082,-0.126805,-0.000449168,-0.429022,0.0506603,0.0799419,-1.34242,0.00669899,0.0049088,-0.00779579,-0.00967769,-0.00507076,0.00582664,0,0,0,0,0,0,0,0,0,-0.000687264,-0.00123441,9.19313e-05,0.00208813,-0.000366235,-0.000128681,0.000136019,-0.000129046,0.000477239,0.000347018,7.38464e-05,0.000715792
178,0.00051179,0.00307783,-0.0044965,-0.00300755,0.0438482,0.0438482,0.0438482,0.0438482,0.0438482,0.0438482,0.0438482,0.0438482,0.0438482,-0.793848,0.133884,0.616923,1.01426,0.00307783,-0.0044965,-0.00300755,0.00210065,-0.00128272,0.00192566,-0.00372508,0.00208384,0.00532289,0.0438482,0.000341907,-0.00850476,0.000463612,0.00564723,-8.58923e-05,-8.18819e-06,0.0114909,0.00551282,-0.00617705,0.00165652,-0.000930898,-0.000913374,-0.00280725,0.00119612,-0.00756997,0.00210065,-0.00128272,0.00192566,-0.00372508,0.00208384,0.00532289,0,0,0,0,0,0,0,0,0,-0.000627495,1.3298e-05,8.27629e-05,-0.00021427,-0.000346029,-9.0954e-05,-4.84254e-05,1.79366e-05,0.000329718,0.000233444,-6.40725e-06,3.36803e-05
179,0.00051179,-0.00173506,-0.00208075,0.00165124,0.0667563,0.0667563,0.0667563,0.0667563,0.0667563,0.0667563,0.0667563,0.0667563,0.0667563,-0.933244,-0.627323,-0.695278,1.32208,-0.00173506,-0.00208075,0.00165124,-0.00260954,0.00243781,0.000224818,-0.00601767,0.00489886,0.00292893,0.0667563,-0.000703558,0.0235808,-0.00199925,0.0117543,-0.0021328,-0.000832159,0.0030952,-0.0197129,0.000670804,0.00643948,-0.00135071,-0.00108613,-0.016113,-0.00141196,-0.0036603,-0.00260954,0.00243781,0.000224818,-0.00601767,0.00489886,0.00292893,0,0,0,0,0,0,0,0,0,-0.000484258,-8.32359e-06,0.000348774,-0.000400067,-0.00029772,-0.000344388,-1.84924e-05,-7.62462e-05,0.000309877,0.000393993,0.000111728,1.58268e-05
180,0.00051179,-0.0103999,0.00667472,0.00869155,0.0875248,0.0875248,0.0875248,0.0875248,0.0875248,0.0875248,0.0875248,0.0875248,0.0875248,-0.837525,-0.827011,0.206218,1.19496,-0.0103999,0.00667472,0.00869155,0.00218606,0.00724051,0.0131716,-0.0115048,-0.0191042,-0.00433521,0.0875248,0.243719,-1.78245,0.06019,-0.219219,-0.0643583,-0.146989,-1.10744,1.85721,-0.00896542,-0.0120908,-0.0684856,0.1509,0.224636,0.034447,0.947849,0.00218606,0.00724051,0.0131716,-0.0115048,-0.0191042,-0.00433521,0,0,0,0,0,0,0,0,0,-0.000146374,0.000934662,-0.000360299,-0.00157981,-0.000210309,0.0010346,-0.000397212,-0.000364271,0.000327311,0.000241638,-0.000511627,-0.000144302
181,0.00051179,0.00558829,0.0285205,-0.0192186,0.0626208,0.0626208,0.0626208,0.0626208,0.0626208,0.0626208,0.0626208,0.0626208,0.0626208,-0.812621,0.13891,-0.0979063,0.830201,0.00558829,0.0285205,-0.0192186,-0.0155581,-0.002773,-0.000757702,0.0110503,0.0123993,0.00987548,0.0626208,-0.279276,-2.14525,-0.121339,-0.929112,-0.85377,0.0136699,-0.843338,2.99343,-0.156178,-0.214781,-0.0129597,-0.0044596,1.11537,0.046155,0.867016,-0.0155581,-0.002773,-0.000757702,0.0110503,0.0123993,0.00987548,0,0,0,0,0,0,0,0,0,-0.000681035,-0.00103117,-0.000673845,0.000420255,-0.000381673,-0.000567279,-0.00028264,0.000113979,0.000367716,-0.000291132,-0.000119583,0.00072315
182,0.00051179,0.0238724,0.00744367,0.0309038,0.0217767,0.0217767,0.0217767,0.0217767,0.0217767,0.0217767,0.0217767,0.0217767,0.0217767,-0.771777,0.447419,-0.10139,0.897832,0.0238724,0.00744367,0.0309038,0.0638101,-0.00198077,0.136553,-0.0158324,-0.00198636,0.016857,0.0217767,-1.71583,-17.831,-0.317662,-3.03741,0.865044,-0.351441,-9.39481,16.9421,-0.393577,-0.0756155,-0.0923014,0.0999233,3.10558,-0.195198,9.26398,0.0638101,-0.00198077,0.136553,-0.0158324,-0.00198636,0.016857,0,0,0,0,0,0,0,0,0,-0.00123829,-0.00567575,-0.00175056,0.000398437,-0.000424171,-0.00144587,0.000537305,-0.000605368,0.000232138,-0.00254731,-0.00033751,0.00169265
183,0.00051179,-0.000599624,0.00565854,0.000653571,0.0720446,0.0720446,0.0720446,0.0720446,0.0720446,0.0720446,0.0720446,0.0720446,0.0720446,-0.822045,-0.793426,0.664135,1.3215,-0.000599624,0.00565854,0.000653571,-0.00024968,-0.000379518,0.000128705,-0.00124078,-0.00432878,0.00408542,0.0720446,0.000951961,-0.00571141,0.000400253,-0.00015038,0.00133851,-0.000130732,0.00720586,0.00497253,-0.000427978,-0.00806975,-0.00116206,-0.00265999,0.00256158,-0.000687622,-0.00519945,-0.00024968,-0.000379518,0.000128705,-0.00124078,-0.00432878,0.00408542,0,0,0,0,0,0,0,0,0,-0.000452735,7.06033e-07,-0.000429927,-0.000411709,-0.000313723,0.000430134,-1.11492e-05,-5.2198e-05,0.000349768,0.000411689,-2.71052e-06,1.41836e-05
184,0.00051179,0.0148847,-0.00929889,-0.0102856,0.00241774,0.00241774,0.00241774,0.00241774,0.00241774,0.00241774,0.00241774,0.00241774,0.00241774,-0.997582,-0.254493,-0.401775,1.10515,0.0148847,-0.00929889,-0.0102856,-0.00356552,-0.00496636,-0.00568446,0.0065394,-0.0161645,0.0136073,0.00241774,-0.037438,0.183094,0.00814445,-0.0837066,-0.0195599,-0.032822,0.0564837,-0.178419,-0.0297775,-0.00568823,0.00721133,-0.0279839,0.0986938,-0.0119449,-0.0182142,-0.00356552,-0.00496636,-0.00568446,0.0065394,-0.0161645,0.0136073,0,0,0,0,0,0,0,0,0,-0.00048361,-0.000132811,0.000110454,-0.000359181,-0.000308597,-7.86735e-05,-4.39835e-05,-4.10811e-05,0.000324085,-2.58841e-05,-4.84509e-05,8.05187e-05
185,0.00051179,-0.0026589,0.000719712,0.00983223,0.0711093,0.0711093,0.0711093,0.0711093,0.0711093,0.0711093,0.0711093,0.0711093,0.0711093,-0.821109,-0.485081,0.538071,1.09501,-0.0026589,0.000719712,0.00983223,-0.00338384,0.00158801,0.00270119,-0.00862606,-0.00185442,0.00768734,0.0711093,0.00102086,-0.026102,0.000179239,0.00315404,-0.00146467,-0.00204204,0.0360114,0.0302255,-0.0042298,-0.00236364,-0.0009237,0.00386775,-0.00151011,0.0030167,-0.0497114,-0.00338384,0.00158801,0.00270119,-0.00862606,-0.00185442,0.00768734,0,0,0,0,0,0,0,0,0,-0.000534005,-6.6055e-06,-0.000339385,-0.000265917,-0.000318879,0.000357057,-5.90699e-05,-2.14592e-06,0.000338055,0.000272508,-2.56353e-05,5.87296e-05
186,0.00051179,0.0134448,0.0103679,0.00523626,0.00821602,0.00821602,0.00821602,0.00821602,0.00821602,0.00821602,0.00821602,0.00821602,0.00821602,-0.991784,0.277832,0.709863,1.25089,0.0134448,0.0103679,0.00523626,0.00221838,-0.000521494,-0.00152003,0.0111974,-0.00307898,-0.000323602,0.00821602,0.00204463,-0.0293909,0.000190027,0.00585977,0.000933181,-0.00345891,0.0300031,0.0150129,0.0074207,-0.00515989,-0.000813792,-0.0028164,-0.0110678,0.00482287,-0.0324229,0.00221838,-0.000521494,-0.00152003,0.0111974,-0.00307898,-0.000323602,0,0,0,0,0,0,0,0,0,-0.000629634,-1.02777e-05,0.000138781,-0.000243295,-0.000321651,-0.000142096,6.14979e-05,-2.71988e-06,0.00028713,0.000193506,-3.62078e-05,-9.09643e-06
187,0.00051179,-0.00120208,0.000458139,8.10487e-05,0.0893899,0.0893899,0.0893899,0.0893899,0.0893899,0.0893899,0.0893899,0.0893899,0.0893899,-0.83939,-0.63181,0.801808,1.32161,-0.00120208,0.000458139,8.10487e-05,0.00157791,-0.00109578,0.000382375,-0.000279517,-0.00172208,0.00390094,0.0893899,0.000341013,-0.000292174,0.00030113,-0.00237489,-0.000157879,0.000343099,0.0010371,0.00165214,-0.000429468,-0.000775433,-0.000875869,0.000699149,0.00269218,-0.000704113,-0.0018173,0.00157791,-0.00109578,0.000382375,-0.000279517,-0.00172208,0.00390094,0,0,0,0,0,0,0,0,0,-0.000562847,4.50988e-06,-0.000309339,-0.000339852,-0.000325853,0.000301392,-8.62966e-06,-1.63746e-05,0.000343785,0.000347107,-9.60488e-06,1.08994e-05
188,0.00051179,0.00215244,-0.0137641,0.00844586,0.109971,0.109971,0.109971,0.109971,0.109971,0.109971,0.109971,0.109971,0.109971,-0.890029,0.406554,0.128866,0.986937,0.00215244,-0.0137641,0.00844586,0.00945617,-0.0103585,0.00270287,0.000372559,0.0147719,-0.00102678,0.109971,0.545151,3.28837,0.0901633,0.884907,-0.222455,-0.0398877,-1.17524,-3.06807,0.118188,-0.045192,-0.0247275,-0.0286318,-0.825951,-0.101323,1.19543,0.00945617,-0.0103585,0.00270287,0.000372559,0.0147719,-0.00102678,0,0,0,0,0,0,0,0,0,-0.000346906,0.0021144,0.000565184,0.000225867,-0.000264848,0.000232863,-6.58324e-05,-7.76988e-05,0.000339679,-0.000597715,-2.18566e-05,-0.00117039
189,0.00051179,0.00804562,-0.00145095,5.02486e-05,0.0354601,0.0354601,0.0354601,0.0354601,0.0354601,0.0354601,0.0354601,0.0354601,0.0354601,-0.96454,0.106683,-0.552236,1.11655,0.00804562,-0.00145095,5.02486e-05,-0.00279644,0.00044188,0.0043207,-0.00362985,-0.00224766,0.000718958,0.0354601,-0.00411783,0.0482001,-0.00208705,-0.0140153,-0.000208896,-0.00803464,0.0292681,-0.0560368,-0.000721382,0.0111673,-0.00540812,-0.000723425,0.00429896,-0.00420449,-0.0285949,-0.00279644,0.00044188,0.0043207,-0.00362985,-0.00224766,0.000718958,0,0,0,0,0,0,0,0,0,-0.000418909,-1.75509e-05,-6.69809e-05,-0.000325963,-0.000309372,5.05292e-05,-4.73572e-06,-4.91453e-05,0.000316404,0.000288824,-2.74126e-05,-4.07252e-07
190,0.00051179,-0.0329444,0.00192946,0.0077737,0.0986297,0.0986297,0.0986297,0.0986297,0.0986297,0.0986297,0.0986297,0.0986297,0.0986297,-0.90137,0.463333,-0.0748653,1.01624,-0.0329444,0.00192946,0.0077737,-0.00291063,0.000257272,-0.00819184,-0.00117369,-0.00576814,-0.00222352,0.0986297,-0.477615,-3.87527,-0.0738337,-0.720657,0.34921,0.134266,0.873225,3.559,-0.0619792,0.0419531,0.030155,-0.198097,0.676775,0.111473,-0.682902,-0.00291063,0.000257272,-0.00819184,-0.00117369,-0.00576814,-0.00222352,0,0,0,0,0,0,0,0,0,-0.000744484,-0.00190136,-0.000445986,0.00145342,-0.00032633,-0.000289778,0.000185499,0.00014993,0.000422463,-0.000192678,9.39378e-05,0.00104751
191,0.00051179,0.0810884,0.0133436,-0.02477,0.00631037,0.00631037,0.00631037,0.00631037,0.00631037,0.00631037,0.00631037,0.00631037,0.00631037,-0.99369,0.356122,-0.133699,1.06401,0.0810884,0.0133436,-0.02477,0.0253201,0.0208265,-0.00829204,-0.00724968,0.0137661,-0.0270837,0.00631037,-0.273672,-1.37185,-0.0766451,-0.40681,0.0678077,-0.0135636,-0.17872,1.22295,-0.0534639,-0.0484087,-0.00156886,-0.0307023,0.441875,0.0471415,0.234192,0.0253201,0.0208265,-0.00829204,-0.00724968,0.0137661,-0.0270837,0,0,0,0,0,0,0,0,0,-0.000599161,-0.000908289,-0.00021889,-0.000268933,-0.000308001,-0.000339296,2.99025e-05,-2.63029e-05,0.00037118,5.03764e-05,0.000148275,0.00043376
192,0.00051179,0.00539586,-0.00331523,0.0060031,0.0420002,0.0420002,0.0420002,0.0420002,0.0420002,0.0420002,0.0420002,0.0420002,0.0420002,-0.812234,0.323059,0.958,1.29686,0.00539586,-0.00331523,0.0060031,0.00453828,-0.00014452,0.000133155,-0.000151615,0.00139626,0.00879311,0.0420002,0.000955299,-0.00349687,-0.000343196,-0.000654922,-0.000116718,0.000500612,0.000331152,-0.00178227,-0.00124921,-0.000729965,-0.000133441,-0.000294825,0.00470012,-0.00113293,-0.00603943,0.00453828,-0.00014452,0.000133155,-0.000151615,0.00139626,0.00879311,0,0,0,0,0,0,0,0,0,-0.000694141,1.39068e-05,0.000123744,-0.000307107,-0.000341797,-0.000128621,-2.05652e-05,2.24549e-05,0.000335075,0.000313445,-9.82677e-06,2.47398e-05
193,0.00051179,0.0236301,-0.00216844,-0.000524789,0.0908497,0.0908497,0.0908497,0.0908497,0.0908497,0.0908497,0.0908497,0.0908497,0.0908497,-0.90915,-0.270199,0.249842,0.980807,0.0236301,-0.00216844,-0.000524789,-0.00108228,-0.00563673,0.00735628,-0.00362966,-0.00134894,0.00428327,0.0908497,0.119255,-0.489819,-0.0145234,0.0325429,0.0773425,-0.0734435,-0.281078,0.388846,0.0649908,0.0742716,0.0272904,-0.122108,-0.104646,0.0174458,0.40371,-0.00108228,-0.00563673,0.00735628,-0.00362966,-0.00134894,0.00428327,0,0,0,0,0,0,0,0,0,-0.000491135,0.000358636,-0.000270474,-0.000518606,-0.000393713,6.88727e-05,7.45795e-05,0.000239708,0.000309013,-0.000142267,1.97063e-05,-0.000123581
194,0.00051179,0.0186146,0.012349,-0.0251213,0.00445515,0.00445515,0.00445515,0.00445515,0.00445515,0.00445515,0.00445515,0.00445515,0.00445515,-0.995545,0.692735,0.541828,1.32837,0.0186146,0.012349,-0.0251213,0.00520967,-0.00835925,-0.00867485,0.0141403,-0.0195309,-0.00301978,0.00445515,0.00982203,-0.0721639,-0.00426727,0.00549165,-0.0105668,-0.00916334,0.018297,0.0641161,0.000157995,0.00235441,0.000317767,0.0205717,-0.020195,0.0059756,-0.0137475,0.00520967,-0.00835925,-0.00867485,0.0141403,-0.0195309,-0.00301978,0,0,0,0,0,0,0,0,0,-0.000466175,3.79056e-05,0.000416692,-0.000404764,-0.000293696,-0.000542957,3.42386e-05,-5.19072e-05,0.000259355,0.000226382,-0.000140224,-2.24738e-05
195,0.00051179,0.000260577,0.00187232,-0.000331104,0.0367419,0.0367419,0.0367419,0.0367419,0.0367419,0.0367419,0.0367419,0.0367419,0.0367419,-0.786742,0.365007,0.712911,1.12269,0.000260577,0.00187232,-0.000331104,0.00367869,0.00179398,0.000819992,-0.00676965,0.00568533,0.00925145,0.0367419,-6.62655e-05,-0.000560772,0.000380225,-0.00378967,5.98289e-05,0.000402242,0.00409321,0.000240367,-0.0021046,0.000426592,-0.00121856,-4.88887e-05,0.00149076,5.71012e-05,-0.00371322,0.00367869,0.00179398,0.000819992,-0.00676965,0.00568533,0.00925145,0,0,0,0,0,0,0,0,0,-0.000617974,1.33928e-05,0.000191389,-0.000253353,-0.000354731,-0.000169647,-4.90406e-05,4.46903e-05,0.000334933,0.000265575,-2.26114e-08,4.18735e-05
196,0.00051179,0.00119055,-0.0042062,0.00619725,0.000734051,0.000734051,0.000734051,0.000734051,0.000734051,0.000734051,0.000734051,0.000734051,0.000734051,-0.999266,0.885305,-0.981002,1.6567,0.00119055,-0.0042062,0.00619725,-0.00278926,0.00241319,0.00409031,-0.00403195,-0.00982531,0.00699067,0.000734051,0.00485189,-0.0263826,-0.000394635,0.00033121,0.00252274,9.29609e-05,-0.00125686,0.0226693,0.000417097,0.00470203,0.00020438,-0.00090818,-0.000827042,-0.00182625,-0.00403221,-0.00278926,0.00241319,0.00409031,-0.00403195,-0.00982531,0.00699067,0,0,0,0,0,0,0,0,0,-0.000420697,6.14523e-06,-0.000254444,-0.000587334,-0.000352824,0.00027463,-2.22422e-05,8.61703e-05,0.000205949,0.000629166,-0.00018238,2.16542e-05
197,0.00051179,-0.00778037,0.00395484,0.0313881,0.000252885,0.000252885,0.000252885,0.000252885,0.000252885,0.000252885,0.000252885,0.000252885,0.000252885,-0.785195,-0.999747,0.61196,1.41086,-0.00778037,0.00395484,0.0313881,-0.0166974,0.00755496,-0.00317194,-0.00819008,-0.00352021,-0.00254675,0.000252885,0.00149609,-0.00245361,-5.25042e-05,0.0002739,0.00111813,-0.0012612,-0.0182935,0.00911585,-0.00117202,-0.000585858,0.00055519,-0.0110081,-0.00364288,0.000724111,-0.00208656,-0.0166974,0.00755496,-0.00317194,-0.00819008,-0.00352021,-0.00254675,0,0,0,0,0,0,0,0,0,-0.000333197,-4.5561e-05,-0.000430872,-0.00055681,-0.000290299,0.000505897,-1.63651e-05,-0.00010965,0.000360645,0.000512479,8e-05,2.13322e-05
198,0.00051179,-0.000532112,-0.00100468,0.00287683,0.0914456,0.0914456,0.0914456,0.0914456,0.0914456,0.0914456,0.0914456,0.0914456,0.0914456,-0.841446,-0.466791,0.853562,1.28627,-0.000532112,-0.00100468,0.00287683,-9.28498e-05,-0.00165492,-4.31277e-05,-0.00145058,-0.00211741,0.00438739,0.0914456,0.000700787,-0.000891679,4.03002e-05,-0.00237008,-0.000504978,0.000418954,0.00105656,0.00192877,-0.000591384,-0.000228687,-0.000606888,0.000624107,0.00360344,-0.000678133,-0.0045575,-9.28498e-05,-0.00165492,-4.31277e-05,-0.00145058,-0.00211741,0.00438739,0,0,0,0,0,0,0,0,0,-0.000624232,4.14415e-07,-0.000236016,-0.000292191,-0.000328863,0.000219869,-1.28351e-05,-7.86706e-06,0.000341408,0.000295949,-1.93759e-05,1.5921e-05
199,0.00051179,0.0781136,-0.0876248,0.138509,0.0299444,0.0299444,0.0299444,0.0299444,0.0299444,0.0299444,0.0299444,0.0299444,0.0299444,-0.720056,-0.827814,0.0537527,1.09847,0.0781136,-0.0876248,0.138509,-0.113091,-0.0422276,0.0169411,0.0535989,0.00467169,-0.0375061,0.0299444,2.41586,21.2067,0.315515,1.54613,-1.50149,0.804336,-4.03858,-19.7833,0.263134,2.17937,0.100952,-0.3047,-3.63788,0.245895,4.20477,-0.113091,-0.0422276,0.0169411,0.0535989,0.00467169,-0.0375061,0,0,0,0,0,0,0,0,0,0.000377543,0.00825089,0.000662038,0.0147741,-9.58983e-05,0.00207084,-0.00167928,0.00442276,0.000388332,-0.00656131,-0.00336653,-0.00222101
200,0.00051179,0.0376726,-0.0176946,0.0127441,0.0918833,0.0918833,0.0918833,0.0918833,0.0918833,0.0918833,0.0918833,0.0918833,0.0918833,-0.841883,-0.10423,-0.126926,0.857754,0.0376726,-0.0176946,0.0127441,-0.0149431,-0.00345039,0.0015468,-0.0024353,-0.00188668,0.00513999,0.0918833,-0.187387,-0.998703,0.062987,0.357379,-0.632655,-0.0211932,-0.763743,1.59369,-0.109628,0.114936,-0.00182943,-0.105006,-0.45462,0.0371999,0.856005,-0.0149431,-0.00345039,0.0015468,-0.0024353,-0.00188668,0.00513999,0,0,0,0,0,0,0,0,0,-0.000638038,-0.000697744,0.000372605,-8.23492e-05,-0.000305945,0.000222761,-0.000246407,-4.88084e-05,0.000367932,-0.000114114,1.16474e-05,0.000525607
201,0.00051179,-0.000782301,0.00704332,0.00504282,0.00413218,0.00413218,0.00413218,0.00413218,0.00413218,0.00413218,0.00413218,0.00413218,0.00413218,-0.754132,0.0269978,-0.712472,1.03782,-0.000782301,0.00704332,0.00504282,-0.00804767,-0.00264414,-0.00686237,0.00576874,-0.000963282,-0.001037,0.00413218,0.000464812,-0.000925998,-0.00039243,0.0128961,0.000434455,3.75994e-05,0.0150692,0.00127384,0.0157201,-0.0050157,-0.00237704,0.0015467,-0.0149237,0.00135066,-0.0216587,-0.00804767,-0.00264414,-0.00686237,0.00576874,-0.000963282,-0.001037,0,0,0,0,0,0,0,0,0,-0.000370972,-5.43216e-05,-2.12179e-05,-0.000333084,-0.000303233,-9.14785e-06,9.10369e-05,-5.78825e-06,0.000384718,0.000264836,-2.7615e-05,-1.48389e-05
202,0.00051179,0.00227482,-0.0100835,0.0310891,0.0135636,0.0135636,0.0135636,0.0135636,0.0135636,0.0135636,0.0135636,0.0135636,0.0135636,-0.763564,0.0409713,-0.321618,0.829546,0.00227482,-0.0100835,0.0310891,-0.00786397,0.00326033,-0.00208097,0.00513202,-0.00356686,0.0290651,0.0135636,-0.000445828,-0.012849,-6.12065e-05,0.0103668,0.00229796,-0.00101501,0.106008,0.00827622,0.0210516,0.0338432,-0.00975174,-0.00505136,-0.0341265,-0.0164999,-0.132046,-0.00786397,0.00326033,-0.00208097,0.00513202,-0.00356686,0.0290651,0,0,0,0,0,0,0,0,0,-0.000515513,-7.66708e-05,-6.13179e-05,-0.000514221,-0.000316018,9.33092e-05,9.57961e-05,-8.24258e-05,0.000378855,0.000483261,-5.07602e-05,2.77038e-05
203,0.00051179,-0.00236931,-0.00134603,0.00154796,0.0212352,0.0212352,0.0212352,0.0212352,0.0212352,0.0212352,0.0212352,0.0212352,0.0212352,-0.978765,-0.561775,0.770686,1.36658,-0.00236931,-0.00134603,0.00154796,0.00161264,-0.00140473,-0.00237136,0.0127648,0.00808748,0.00095886,0.0212352,0.00141878,-0.0201371,0.00096906,-0.00481103,-0.000450135,-0.00175737,0.0360209,0.0229565,0.000940843,0.00148566,-0.000959983,0.00213827,0.00467139,0.000969049,-0.0397071,0.00161264,-0.00140473,-0.00237136,0.0127648,0.00808748,0.00095886,0,0,0,0,0,0,0,0,0,-0.000573196,-6.3794e-06,-0.00029613,-0.000295573,-0.000365967,0.000291773,4.69918e-05,3.85416e-05,0.000302337,0.000254285,3.27333e-05,-1.1897e-05
204,0.00051179,-0.00167747,-0.000468065,0.00135823,0.0539761,0.0539761,0.0539761,0.0539761,0.0539761,0.0539761,0.0539761,0.0539761,0.0539761,-0.946024,0.169949,0.918257,1.3293,-0.00167747,-0.000468065,0.00135823,-0.00311277,-0.000727088,-0.00237761,0.00727178,-0.00115836,0.00356452,0.0539761,0.00125749,-0.00147509,9.76995e-05,-0.00344866,0.000259727,9.52259e-05,0.00589483,0.00289283,0.000767691,-0.00141427,-0.000199686,-0.000607912,0.005331,-0.00129506,-0.00664515,-0.00311277,-0.000727088,-0.00237761,0.00727178,-0.00115836,0.00356452,0,0,0,0,0,0,0,0,0,-0.000695236,-1.90306e-05,5.86627e-05,-0.000276227,-0.000329876,-6.49566e-05,3.04431e-05,1.38923e-05,0.000300527,0.000253403,-2.74728e-05,1.59307e-06
205,0.00051179,0.00496887,0.0131369,8.34167e-05,0.0252164,0.0252164,0.0252164,0.0252164,0.0252164,0.0252164,0.0252164,0.0252164,0.0252164,-0.775216,-0.465102,0.61563,1.09375,0.00496887,0.0131369,8.34167e-05,-0.00177647,-0.00416102,0.00209994,-0.0118003,-0.00568394,0.00187887,0.0252164,0.000251427,-0.0101423,0.000290103,-0.00594801,-0.000198321,0.000157528,0.0124876,0.00537175,-0.00555058,-0.0053602,-0.000693671,0.000279927,-0.00182871,0.000292499,-0.012851,-0.00177647,-0.00416102,0.00209994,-0.0118003,-0.00568394,0.00187887,0,0,0,0,0,0,0,0,0,-0.000560261,1.16492e-05,-0.0002955,-0.000251421,-0.00030678,0.00025679,-6.74798e-05,-2.4823e-05,0.00035356,0.000273995,-3.8953e-05,3.01313e-05
206,0.00051179,-0.00195312,-0.00223422,0.00173125,0.0790752,0.0790752,0.0790752,0.0790752,0.0790752,0.0790752,0.0790752,0.0790752,0.0790752,-0.829075,0.48337,0.806365,1.25349,-0.00195312,-0.00223422,0.00173125,0.00396915,0.000133924,0.000784952,-0.00170918,0.00385641,0.00622087,0.0790752,0.000300542,0.0005989,0.00024391,-0.00272995,0.000252735,0.000403214,0.00145459,0.00110148,-0.000855641,0.000491099,-0.000927115,7.61228e-05,0.00447307,-0.000516143,-0.00326196,0.00396915,0.000133924,0.000784952,-0.00170918,0.00385641,0.00622087,0,0,0,0,0,0,0,0,0,-0.000619926,1.27989e-05,0.000222897,-0.000310086,-0.000346595,-0.000219118,-2.13737e-05,3.88551e-05,0.000325263,0.000321967,-9.56216e-06,1.99741e-05
207,0.00051179,-0.00239448,0.0023167,0.017825,0.0379823,0.0379823,0.0379823,0.0379823,0.0379823,0.0379823,0.0379823,0.0379823,0.0379823,-0.787982,-0.401,-0.461998,0.997577,-0.00239448,0.0023167,0.017825,-0.0158796,0.00273673,0.00611699,0.00619002,0.00233074,0.00394286,0.0379823,-0.00100379,0.0167842,-0.000384919,-0.00237689,0.00150306,-0.00129344,0.0475793,-0.0158927,0.0228698,0.0161265,-0.00679953,0.00105653,-0.0160663,-0.00859715,-0.0664608,-0.0158796,0.00273673,0.00611699,0.00619002,0.00233074,0.00394286,0,0,0,0,0,0,0,0,0,-0.00050246,-9.30964e-05,0.000279803,-0.000412496,-0.000356251,-0.000256285,0.00013662,-6.58433e-05,0.000372827,0.000460732,2.11553e-05,-3.19509e-05
208,0.00051179,0.0824777,0.035176,-0.0554085,0.00941794,0.00941794,0.00941794,0.00941794,0.00941794,0.00941794,0.00941794,0.00941794,0.00941794,-0.759418,-0.13399,0.216635,0.800999,0.0824777,0.035176,-0.0554085,0.00768512,-0.0216169,0.0150622,0.0136084,0.0403611,-0.024524,0.00941794,0.00298341,-0.429895,0.000174172,0.0790526,0.00666521,-0.00623785,0.999416,0.340752,0.0402208,0.197819,0.0168126,-0.112687,-0.312048,0.0434889,-0.83132,0.00768512,-0.0216169,0.0150622,0.0136084,0.0403611,-0.024524,0,0,0,0,0,0,0,0,0,-0.000486448,-4.29605e-05,-0.000256664,-0.000819647,-0.000377262,4.22368e-05,0.000172843,0.000500736,0.000348978,0.000907891,7.10011e-05,-1.47848e-06
209,0.00051179,0.0509013,-0.0175998,-0.00766003,0.0586556,0.0586556,0.0586556,0.0586556,0.0586556,0.0586556,0.0586556,0.0586556,0.0586556,-0.808656,-0.18774,0.0330671,0.830821,0.0509013,-0.0175998,-0.00766003,0.00539303,-0.00328876,-0.0127992,-0.00211217,-0.00509341,-0.00579351,0.0586556,0.165068,1.22581,-0.0644708,-0.86004,0.391219,0.196968,0.851592,-1.66793,0.0927037,-0.0895948,-0.102554,0.426785,0.967234,-0.0580691,-1.27072,0.00539303,-0.00328876,-0.0127992,-0.00211217,-0.00509341,-0.00579351,0,0,0,0,0,0,0,0,0,-0.000474401,0.000624779,-0.00036052,0.00212353,-0.000391865,-0.000317076,0.000225431,-0.000987129,0.00041727,-0.00028184,-8.93409e-05,-0.00054684
210,0.00051179,0.0515566,0.0430588,-0.125358,0.00474968,0.00474968,0.00474968,0.00474968,0.00474968,0.00474968,0.00474968,0.00474968,0.00474968,-0.99525,-0.643695,0.176051,1.19827,0.0515566,0.0430588,-0.125358,-0.042671,-0.012258,0.0140064,0.0223959,0.024844,0.0192672,0.00474968,0.330346,1.49388,0.0499457,-0.174933,-0.262908,-0.0207226,-0.504408,-1.28253,0.0459372,0.172537,-0.000224319,0.0409282,-0.0406629,-0.035368,0.588838,-0.042671,-0.012258,0.0140064,0.0223959,0.024844,0.0192672,0,0,0,0,0,0,0,0,0,-0.000418022,0.00104618,-0.000465384,0.000331628,-0.000420893,0.00084226,-5.05353e-05,4.60048e-05,0.000374988,-0.00039879,0.000200192,-0.000472705
211,0.00051179,-0.00281772,0.00147831,0.00420841,0.0185421,0.0185421,0.0185421,0.0185421,0.0185421,0.0185421,0.0185421,0.0185421,0.0185421,-0.981458,0.954566,0.790476,1.58092,-0.00281772,0.00147831,0.00420841,-0.00224478,-0.003333,0.0017966,-0.000111665,-0.00545849,0.0108693,0.0185421,0.00121011,-0.0047473,0.000660069,-0.00353583,-0.00313449,7.09742e-05,0.00725442,0.0106995,-0.000247763,0.000419884,-0.0010625,0.00308738,0.00163764,-0.00206243,-0.0145502,-0.00224478,-0.003333,0.0017966,-0.000111665,-0.00545849,0.0108693,0,0,0,0,0,0,0,0,0,-0.000481881,-1.37266e-05,0.000308815,-0.000521679,-0.000303293,-0.000335544,-1.03504e-05,3.13823e-06,0.00023751,0.000540355,-6.83482e-05,3.54813e-05
212,0.00051179,0.00177533,-0.00503923,0.00899016,0.0624451,0.0624451,0.0624451,0.0624451,0.0624451,0.0624451,0.0624451,0.0624451,0.0624451,-0.812445,0.0161612,0.872936,1.19262,0.00177533,-0.00503923,0.00899016,0.00253684,-0.000500673,-0.000123214,-0.00444755,0.00104024,0.00780218,0.0624451,0.000741616,-0.0043706,-1.16751e-05,0.000250272,0.000224571,0.000318773,-0.000166314,0.0023707,-0.00071256,-0.00011586,-0.000433494,-0.000320235,0.00490481,-0.000400379,-0.00850361,0.00253684,-0.000500673,-0.000123214,-0.00444755,0.00104024,0.00780218,0,0,0,0,0,0,0,0,0,-0.000688665,1.00229e-05,-5.0827e-06,-0.000242175,-0.000335926,-4.0789e-08,-3.21699e-05,2.54981e-05,0.00033617,0.000244131,-1.94306e-05,3.06396e-05
213,0.00051179,0.00124492,-0.0176931,0.0149744,0.0170969,0.0170969,0.0170969,0.0170969,0.0170969,0.0170969,0.0170969,0.0170969,0.0170969,-0.767097,-0.0755273,-0.612492,0.984525,0.00124492,-0.0176931,0.0149744,-0.0154371,0.00315317,0.00264369,0.00146355,-0.00167179,0.00315407,0.0170969,0.000745609,-0.000831682,-0.000581793,0.0202243,0.000767322,-2.21506e-05,0.0196861,-0.00118056,0.0201489,0.015629,-0.00416784,0.000984438,-0.0181601,-0.00181046,-0.0356449,-0.0154371,0.00315317,0.00264369,0.00146355,-0.00167179,0.00315407,0,0,0,0,0,0,0,0,0,-0.000403889,-8.29936e-05,4.035e-05,-0.000319125,-0.000315214,-1.46362e-05,9.85264e-05,-4.17826e-05,0.000382394,0.000345341,-1.66137e-05,-2.81802e-06
214,0.00051179,0.00189984,0.00258323,0.00129604,0.113366,0.113366,0.113366,0.113366,0.113366,0.113366,0.113366,0.113366,0.113366,-0.886634,0.0861284,0.616283,1.08321,0.00189984,0.00258323,0.00129604,-0.00429061,0.00109532,0.00051558,0.00320126,-0.000778042,0.00391528,0.113366,0.00167949,-0.0207912,-0.000172012,0.00857191,-4.53095e-05,-0.0018783,0.030877,0.0189366,0.000312759,-0.00174512,-0.000585683,-0.00181426,-0.00941003,0.00394786,-0.0303588,-0.00429061,0.00109532,0.00051558,0.00320126,-0.000778042,0.00391528,0,0,0,0,0,0,0,0,0,-0.000629835,-2.31702e-05,5.37473e-05,-0.000209227,-0.000337863,-4.45142e-05,7.45542e-06,1.08246e-05,0.000311323,0.0001956,-2.44619e-05,2.92011e-05
215,0.00051179,-0.00362842,-0.00362862,0.00693208,0.0212162,0.0212162,0.0212162,0.0212162,0.0212162,0.0212162,0.0212162,0.0212162,0.0212162,-0.97839,0.53395,-0.978784,1.48336,-0.00362842,-0.00362862,0.00693208,-0.00490029,0.00120571,0.00121904,-0.0134843,-0.00441304,0.000432068,0.0212162,0.00333031,-0.0177887,-0.000469349,0.0018255,-0.000428266,0.000527836,-0.00278581,0.0218453,-0.000879632,0.0025701,0.000248693,-0.000125171,-0.000766975,-0.00177296,-0.0040211,-0.00490029,0.00120571,0.00121904,-0.0134843,-0.00441304,0.000432068,0,0,0,0,0,0,0,0,0,-0.000340492,1.20825e-05,-0.000194072,-0.000418549,-0.000335181,0.000201435,-5.18871e-05,7.77755e-05,0.000275373,0.000436017,-0.000119419,1.3228e-05
216,0.00051179,0.0067348,0.0120546,-0.0258376,0.0199498,0.0199498,0.0199498,0.0199498,0.0199498,0.0199498,0.0199498,0.0199498,0.0199498,-0.98005,-0.651201,0.438392,1.25569,0.0067348,0.0120546,-0.0258376,0.00545621,0.00249038,-0.00536208,0.0130722,0.0154356,-0.0125773,0.0199498,0.0242306,-0.171308,0.00640816,-0.0580703,-0.0431084,-0.0216318,0.0481732,0.207682,0.0045581,0.0260362,-0.00114872,0.05814,0.0199795,0.0140689,-0.0804756,0.00545621,0.00249038,-0.00536208,0.0130722,0.0154356,-0.0125773,0,0,0,0,0,0,0,0,0,-0.000438303,9.21161e-05,-0.00049851,-0.000267105,-0.000386143,0.000587496,3.18339e-05,5.38759e-05,0.000305295,-2.83338e-06,8.8993e-05,-4.88597e-05
217,0.00051179,-0.00208926,-0.0290931,0.0189817,0.0370045,0.0370045,0.0370045,0.0370045,0.0370045,0.0370045,0.0370045,0.0370045,0.0370045,-0.787004,-0.114651,-0.205816,0.821511,-0.00208926,-0.0290931,0.0189817,-0.0168576,0.0128841,0.00512652,0.0358718,0.0273657,0.0145731,0.0370045,-0.0386236,1.43395,0.0051576,-0.130202,-0.064092,-0.0574092,1.27715,-1.36777,-0.109017,-0.152848,0.0053659,-0.159059,0.312142,-0.102856,-1.13707,-0.0168576,0.0128841,0.00512652,0.0358718,0.0273657,0.0145731,0,0,0,0,0,0,0,0,0,-0.000606842,-2.71257e-05,0.000295044,-0.00108979,-0.00031271,-0.000114627,-0.000115446,0.000241419,0.000358246,0.000566967,8.58968e-05,-0.000191135
218,0.00051179,0.00488317,-0.000455663,-0.000648931,0.0504273,0.0504273,0.0504273,0.0504273,0.0504273,0.0504273,0.0504273,0.0504273,0.0504273,-0.949573,-0.250648,-0.43266,1.07318,0.00488317,-0.000455663,-0.000648931,-0.00338271,-0.00160588,-0.000879976,0.00686815,-0.00147256,0.000628751,0.0504273,-0.0207515,0.195345,0.00233335,-0.0510731,-0.00275841,-0.0235929,0.118798,-0.19747,-0.0198639,-0.0120419,-0.00180042,-0.0101431,0.0635707,-0.0141726,-0.108006,-0.00338271,-0.00160588,-0.000879976,0.00686815,-0.00147256,0.000628751,0,0,0,0,0,0,0,0,0,-0.000475951,-6.22013e-05,0.000134314,-0.0003918,-0.000312591,-0.000127039,-6.50903e-06,-2.94193e-05,0.000326119,0.000147071,-3.31049e-06,-9.24942e-06
219,0.00051179,-0.00491223,-0.00725626,-0.0098873,0.011162,0.011162,0.011162,0.011162,0.011162,0.011162,0.011162,0.011162,0.011162,-0.761162,0.786045,0.443032,1.18047,-0.00491223,-0.00725626,-0.0098873,0.0192366,0.0148736,-0.00338938,-0.00680506,0.0258279,-0.00547047,0.011162,0.001018,0.000421471,-0.000832848,0.0350362,-0.000652817,-0.000338495,0.0590348,0.00514358,-0.0124151,0.0614367,0.0070124,0.000489678,-0.0892167,0.00701452,-0.0496372,0.0192366,0.0148736,-0.00338938,-0.00680506,0.0258279,-0.00547047,0,0,0,0,0,0,0,0,0,-0.000372037,9.82978e-05,0.000532227,-0.000517492,-0.00042426,-0.00039182,-9.9076e-05,0.00020334,0.000348955,0.000480213,0.000125063,4.74507e-06
220,0.00051179,0.00654563,-0.00484411,0.0102837,0.0227834,0.0227834,0.0227834,0.0227834,0.0227834,0.0227834,0.0227834,0.0227834,0.0227834,-0.772783,0.725268,-0.38939,1.12908,0.00654563,-0.00484411,0.0102837,-0.0251852,-0.0103854,-0.00189526,0.0155483,0.0307246,0.00714295,0.0227834,0.000304237,0.0321667,0.000108011,-0.0161403,-0.00369554,-0.00156273,0.0801275,-0.0350168,0.0229681,-0.0889955,0.00509815,0.0196655,0.10998,-0.00604459,-0.110077,-0.0251852,-0.0103854,-0.00189526,0.0155483,0.0307246,0.00714295,0,0,0,0,0,0,0,0,0,-0.000688486,-0.000141405,-0.000580858,-0.000695315,-0.000180895,0.000478084,0.000175582,0.00029839,0.000353567,0.000660735,5.98379e-05,-1.15088e-05
221,0.00051179,0.0267367,-0.0113001,-0.0216117,0.0344993,0.0344993,0.0344993,0.0344993,0.0344993,0.0344993,0.0344993,0.0344993,0.0344993,-0.965501,0.669543,0.290665,1.21036,0.0267367,-0.0113001,-0.0216117,0.00735503,-0.0117307,0.0101335,0.00808692,-0.0160234,-0.0105445,0.0344993,0.145865,-0.389753,-0.0156223,0.0882259,-0.157075,-0.0730526,-0.227943,0.520091,0.0152661,-0.127508,-0.00589536,0.136968,0.0505825,0.0186883,0.112586,0.00735503,-0.0117307,0.0101335,0.00808692,-0.0160234,-0.0105445,0,0,0,0,0,0,0,0,0,-0.000377826,0.000552965,0.000502485,-0.000300614,-0.000303531,-0.000776015,-9.63698e-05,-9.43921e-05,0.000276871,-0.000328577,-0.000124796,-0.000172416
222,0.00051179,-0.0080744,0.0136416,0.0144977,0.0275897,0.0275897,0.0275897,0.0275897,0.0275897,0.0275897,0.0275897,0.0275897,0.0275897,-0.77759,0.675979,0.495802,1.14342,-0.0080744,0.0136416,0.0144977,0.00854066,0.0028987,0.000724413,-0.00732515,0.0157652,0.00256853,0.0275897,0.000610903,-0.00504504,-0.000676744,0.010849,-0.00179408,-0.00106815,0.0475218,0.0149135,-0.01345,0.02579,0.00225184,0.0079581,-0.0502806,0.00529411,-0.0699776,0.00854066,0.0028987,0.000724413,-0.00732515,0.0157652,0.00256853,0,0,0,0,0,0,0,0,0,-0.000452191,5.00974e-05,0.000442046,-0.000437135,-0.000397766,-0.000419826,-9.95364e-05,0.000123436,0.000332758,0.000433697,5.67345e-05,4.36528e-05
223,0.00051179,-0.00234511,-0.00203141,0.00104561,0.0409872,0.0409872,0.0409872,0.0409872,0.0409872,0.0409872,0.0409872,0.0409872,0.0409872,-0.959013,-0.478473,-0.864847,1.37717,-0.00234511,-0.00203141,0.00104561,-0.00415175,0.00145132,0.00153336,-0.0104615,0.00166724,0.00155144,0.0409872,-0.000313386,0.0100947,-0.00125801,0.00720936,-0.000278052,0.000995554,0.000753887,-0.00747154,-0.00203017,8.59957e-05,-0.000200094,-0.0018962,-0.00526394,-0.00199146,9.67025e-05,-0.00415175,0.00145132,0.00153336,-0.0104615,0.00166724,0.00155144,0,0,0,0,0,0,0,0,0,-0.000376903,-2.25247e-06,0.00023482,-0.000350089,-0.000283742,-0.000232887,-4.2385e-05,-5.99914e-05,0.000310488,0.000375378,7.46628e-05,1.78731e-05
224,0.00051179,-0.00673179,0.00210293,0.0127939,0.0192462,0.0192462,0.0192462,0.0192462,0.0192462,0.0192462,0.0192462,0.0192462,0.0192462,-0.980754,0.20771,0.559436,1.14804,-0.00673179,0.00210293,0.0127939,0.00136905,0.00203483,-0.00272145,0.00779422,-0.00542018,0.00278628,0.0192462,0.00813515,-0.0667538,-0.0017448,0.00235348,0.000440421,-0.00824944,0.0530422,0.0730451,0.0160079,-0.0190762,0.000913891,-0.0108417,0.0146197,0.0097255,-0.0549944,0.00136905,0.00203483,-0.00272145,0.00779422,-0.00542018,0.00278628,0,0,0,0,0,0,0,0,0,-0.000604801,-5.34605e-06,0.0001246,-0.000225956,-0.000326211,-0.0001217,6.61436e-05,-2.02006e-05,0.000290982,0.000116247,-2.48622e-05,9.69184e-06
225,0.00051179,0.00165903,0.0040884,-1.88276e-05,0.0737158,0.0737158,0.0737158,0.0737158,0.0737158,0.0737158,0.0737158,0.0737158,0.0737158,-0.926284,-0.251858,0.609517,1.13708,0.00165903,0.0040884,-1.88276e-05,-0.00123899,0.000326646,0.000408383,0.00520208,0.00199216,0.00196727,0.0737158,0.00284018,-0.0273935,-0.000579588,0.0145059,-0.00116694,-0.0033189,0.0342537,0.0269014,0.00550203,0.00349309,0.00047717,0.00184076,-0.0220874,0.00579466,-0.0360757,-0.00123899,0.000326646,0.000408383,0.00520208,0.00199216,0.00196727,0,0,0,0,0,0,0,0,0,-0.000607587,-1.51486e-05,-0.000166751,-0.000212181,-0.000348294,0.000164221,3.03661e-05,4.49671e-05,0.000313208,0.000183076,-2.02738e-05,1.56551e-05
226,0.00051179,0.00151338,0.0013613,-0.010048,0.0191633,0.0191633,0.0191633,0.0191633,0.0191633,0.0191633,0.0191633,0.0191633,0.0191633,-0.854716,0.980837,-0.819596,1.53763,0.00151338,0.0013613,-0.010048,-0.00194837,-0.0047223,-0.00254837,0.000186514,-0.00209796,-0.00299436,0.0191633,0.00152315,-0.00264776,-0.000619881,-0.000824656,0.00104446,0.00111631,-0.00422316,8.99147e-05,-0.000778811,-0.00193301,0.000395183,0.00318381,0.00139636,0.0010633,0.0110874,-0.00194837,-0.0047223,-0.00254837,0.000186514,-0.00209796,-0.00299436,0,0,0,0,0,0,0,0,0,-0.000540204,1.27612e-06,-0.000354622,-0.000597297,-0.000296796,0.000301201,4.40711e-07,0.00012118,0.00027746,0.000582976,-0.000138208,-6.25309e-06
227,0.00051179,-0.0235894,0.00514895,0.0805221,0.00394523,0.00394523,0.00394523,0.00394523,0.00394523,0.00394523,0.00394523,0.00394523,0.00394523,-0.753945,0.491521,0.0154232,0.900147,-0.0235894,0.00514895,0.0805221,-0.00652584,-0.0277653,0.0450468,-0.00481758,-0.00198459,-0.0140871,0.00394523,0.427208,3.33914,0.0729889,0.753997,-0.381203,0.728678,-0.93291,-2.93435,0.0870567,0.0121834,0.183075,-0.91013,-0.771329,-0.00728371,1.76252,-0.00652584,-0.0277653,0.0450468,-0.00481758,-0.00198459,-0.0140871,0,0,0,0,0,0,0,0,0,-0.000390448,0.00154778,0.000307496,0.0121546,-0.000283444,0.00014474,-0.00014444,0.00187849,0.000295155,-0.00441732,-6.75841e-05,-0.00066249
228,0.00051179,-0.00614882,0.0574357,0.0375614,0.00497378,0.00497378,0.00497378,0.00497378,0.00497378,0.00497378,0.00497378,0.00497378,0.00497378,-0.995026,-0.456737,-0.0479182,1.09589,-0.00614882,0.0574357,0.0375614,0.0375489,-0.00315677,-0.00440816,-0.000846699,-0.0160082,-0.017744,0.00497378,-0.144393,-1.38029,0.0203135,0.122067,0.173586,0.108758,0.644252,1.21285,-0.0244633,-0.0790345,-0.0458118,-0.196065,-0.100468,0.0373836,-0.485748,0.0375489,-0.00315677,-0.00440816,-0.000846699,-0.0160082,-0.017744,0,0,0,0,0,0,0,0,0,-0.000606224,-0.000404397,0.000179795,0.0005113,-0.000351036,-8.22803e-06,3.27481e-06,-0.000458456,0.000445388,0.000532198,-0.000159744,0.000228023
229,0.00051179,-0.00733194,-0.00265151,0.00830059,0.0891738,0.0891738,0.0891738,0.0891738,0.0891738,0.0891738,0.0891738,0.0891738,0.0891738,-0.839174,-0.291016,0.463384,1.00181,-0.00733194,-0.00265151,0.00830059,-0.00485556,0.0037719,0.00168547,-0.0063588,0.00610487,0.00427807,0.0891738,0.00242044,-0.0515645,-0.000491731,0.0117944,-0.000871909,-0.00564392,0.0691154,0.0597684,-0.00116773,0.0164114,0.000929511,0.000272851,-0.0255542,0.00807882,-0.0776889,-0.00485556,0.0037719,0.00168547,-0.0063588,0.00610487,0.00427807,0,0,0,0,0,0,0,0,0,-0.000568397,-1.49393e-05,-0.000210669,-0.000257993,-0.0003384,0.000243471,-4.03964e-05,8.5696e-05,0.000324883,0.000218409,-1.53522e-05,5.90207e-05
230,0.00051179,-0.00257577,-0.00342143,0.00306187,0.0268209,0.0268209,0.0268209,0.0268209,0.0268209,0.0268209,0.0268209,0.0268209,0.0268209,-0.776821,-0.339817,0.4578,0.963591,-0.00257577,-0.00342143,0.00306187,0.00103611,-0.000905247,0.00694557,-0.0106457,0.0028866,-0.000198936,0.0268209,0.000272825,-0.0166506,6.80164e-05,0.00105158,-0.000958241,-0.00197735,0.0732386,0.0201846,-0.0127402,0.00855745,-6.98576e-05,-0.000291562,-0.0061876,0.00603187,-0.0760089,0.00103611,-0.000905247,0.00694557,-0.0106457,0.0028866,-0.000198936,0,0,0,0,0,0,0,0,0,-0.000555478,2.52878e-05,-0.000248969,-0.000266029,-0.000319773,0.000240597,-9.81864e-05,6.48136e-05,0.000342689,0.000315711,-3.66462e-05,4.79078e-05
231,0.00051179,-0.00361112,0.00260483,0.00831675,0.0298012,0.0298012,0.0298012,0.0298012,0.0298012,0.0298012,0.0298012,0.0298012,0.0298012,-0.970199,0.754316,0.828916,1.48236,-0.00361112,0.00260483,0.00831675,-0.00424928,-0.00391231,-0.00178278,0.00504544,-0.00849068,0.00589527,0.0298012,0.000762835,-0.00472236,0.000966139,-0.0066884,-0.00128862,0.000124797,0.00730069,0.0096221,-0.000134008,-0.00229214,-0.000761394,-0.000508578,0.00637572,-0.00192068,-0.0151089,-0.00424928,-0.00391231,-0.00178278,0.00504544,-0.00849068,0.00589527,0,0,0,0,0,0,0,0,0,-0.000558846,-2.36625e-05,0.000268176,-0.000414292,-0.00030821,-0.000297638,1.83269e-05,1.10226e-06,0.000261597,0.000397712,-9.3623e-05,1.36427e-05
232,0.00051179,-0.00125408,-0.00853877,-0.0316972,0.0646904,0.0646904,0.0646904,0.0646904,0.0646904,0.0646904,0.0646904,0.0646904,0.0646904,-0.93531,0.715548,0.182067,1.19162,-0.00125408,-0.00853877,-0.0316972,0.0159049,0.00350226,0.0179771,0.0156023,-0.0201786,0.00184278,0.0646904,0.387273,1.75194,-0.0593139,-0.00045146,-0.320495,-0.0539322,-1.39026,-1.43019,0.0175069,-0.207257,-0.00452833,0.145061,0.216247,-0.0509919,1.27689,0.0159049,0.00350226,0.0179771,0.0156023,-0.0201786,0.00184278,0,0,0,0,0,0,0,0,0,-0.000304572,0.00156919,0.000392359,3.96751e-05,-0.000325942,-0.000950476,-0.000281152,-0.000146694,0.000300415,-0.000399226,-0.000100375,-0.000692443
233,0.00051179,-0.000588417,0.0164163,-0.0172612,0.0988944,0.0988944,0.0988944,0.0988944,0.0988944,0.0988944,0.0988944,0.0988944,0.0988944,-0.848894,-0.514952,-0.206556,1.01413,-0.000588417,0.0164163,-0.0172612,-0.0069997,0.00399787,0.0142711,-0.00280628,0.00319289,-0.00593616,0.0988944,-0.363054,1.67245,0.0211607,-0.21128,0.293809,-0.279869,-1.16766,-1.96567,-0.0508681,-0.197265,0.0300866,0.234061,0.392129,-0.144587,0.950864,-0.0069997,0.00399787,0.0142711,-0.00280628,0.00319289,-0.00593616,0,0,0,0,0,0,0,0,0,-0.000809878,-0.00118767,0.000559763,-0.00222324,-0.000349129,-0.000308177,0.000394225,0.000230747,0.00028877,-0.000432732,0.000102048,-9.00168e-05
234,0.00051179,-0.00253761,-0.00037223,-0.00915288,0.0113943,0.0113943,0.0113943,0.0113943,0.0113943,0.0113943,0.0113943,0.0113943,0.0113943,-0.80578,0.810212,-0.988606,1.51098,-0.00253761,-0.00037223,-0.00915288,-0.000234875,0.000662543,-0.00254724,-0.000776252,0.00176597,0.00290336,0.0113943,0.00119103,-0.00927497,-0.000158571,0.00342913,-0.000327658,0.00017608,-0.00414964,0.0121402,0.000102459,0.00158263,0.000398492,-3.38569e-05,-0.00463953,-0.000828773,0.0133364,-0.000234875,0.000662543,-0.00254724,-0.000776252,0.00176597,0.00290336,0,0,0,0,0,0,0,0,0,-0.000396945,2.06123e-06,-0.000245714,-0.000551364,-0.000303442,0.000250753,-6.08853e-06,0.000124041,0.000325046,0.000527652,-0.000102397,7.65338e-06
235,0.00051179,-0.037503,0.000751346,0.0256164,0.018666,0.018666,0.018666,0.018666,0.018666,0.018666,0.018666,0.018666,0.018666,-0.981334,0.843388,0.0518624,1.29499,-0.037503,0.000751346,0.0256164,-0.0227242,0.00682116,-0.00686173,0.00757058,-0.0175805,0.0169902,0.018666,0.179263,1.46825,-0.0475634,-0.227438,0.0281509,0.343796,0.945678,-1.45889,0.0158509,-0.136601,-0.0477467,0.11117,0.363288,-0.0580029,-1.08246,-0.0227242,0.00682116,-0.00686173,0.00757058,-0.0175805,0.0169902,0,0,0,0,0,0,0,0,0,-0.000474982,0.00062237,0.000335652,0.00190188,-0.000284964,-0.000743074,-4.32168e-05,-0.000143225,0.000328571,0.00146746,-0.000510047,-0.000365388
236,0.00051179,0.0294056,-0.0125381,-0.00156653,0.107923,0.107923,0.107923,0.107923,0.107923,0.107923,0.107923,0.107923,0.107923,-0.857923,-0.330523,-0.109767,0.925919,0.0294056,-0.0125381,-0.00156653,-0.00687551,-0.0237683,-0.00105053,0.00859518,-0.0110675,-0.00730115,0.107923,-0.525345,-3.85327,0.165504,1.34727,-0.138693,-0.0177848,-1.04281,3.96255,-0.129971,0.157689,-0.00910954,-0.0795005,-1.49242,0.0968783,1.12388,-0.00687551,-0.0237683,-0.00105053,0.00859518,-0.0110675,-0.00730115,0,0,0,0,0,0,0,0,0,-0.000770472,-0.00201031,0.00085945,0.000340883,-0.000287319,0.000557906,4.39137e-05,-0.000209716,0.000380874,-0.000529236,7.94599e-06,0.00109868
237,0.00051179,-0.00261605,0.00196057,-0.00530249,0.114419,0.114419,0.114419,0.114419,0.114419,0.114419,0.114419,0.114419,0.114419,-0.885581,-0.646379,0.39335,1.16481,-0.00261605,0.00196057,-0.00530249,0.00182237,0.00113471,0.00195489,-0.0011151,-0.00139156,0.00775845,0.114419,0.0179323,-0.271194,0.00450111,-0.0369139,-0.036187,-0.0234411,0.197045,0.309997,-0.0120592,0.0165442,-0.00330051,0.0790123,0.0184091,0.02698,-0.270755,0.00182237,0.00113471,0.00195489,-0.0011151,-0.00139156,0.00775845,0,0,0,0,0,0,0,0,0,-0.0004199,5.10978e-05,-0.000498769,-0.000391965,-0.000333453,0.000555127,-0.000113547,-2.98387e-05,0.000311784,0.000177103,-1.7082e-05,0.000126017
238,0.00051179,-0.0223802,-0.0102193,0.00791663,0.0317148,0.0317148,0.0317148,0.0317148,0.0317148,0.0317148,0.0317148,0.0317148,0.0317148,-0.968285,0.68085,-0.355813,1.23602,-0.0223802,-0.0102193,0.00791663,-0.00394189,-0.00363097,0.0054305,-0.0133582,-0.0109595,0.0153282,0.0317148,-0.0855348,0.423911,0.0110517,-0.0347304,0.0453707,-0.0576633,-0.0492596,-0.446901,0.00136865,0.0537375,0.00335915,0.0821777,-0.0087878,-0.0297095,-0.0408347,-0.00394189,-0.00363097,0.0054305,-0.0133582,-0.0109595,0.0153282,0,0,0,0,0,0,0,0,0,-0.000656985,-0.000313713,-0.000594891,-0.000498244,-0.000295157,0.000669098,7.37226e-05,0.000138826,0.000272363,-2.4084e-05,-0.000214829,6.1764e-05
239,0.00051179,0.00119319,0.00210303,-0.00212935,0.0533957,0.0533957,0.0533957,0.0533957,0.0533957,0.0533957,0.0533957,0.0533957,0.0533957,-0.803396,-0.238732,0.642862,1.05627,0.00119319,0.00210303,-0.00212935,0.00228307,-0.000339674,2.29347e-05,-0.00691173,-0.00261965,0.00574275,0.0533957,0.000537708,-0.00528399,0.00025893,0.00322435,0.000100837,-0.00010993,0.00831645,0.00398996,-0.0039096,-0.00433186,-0.000824491,9.07967e-05,-0.000995528,0.000709463,-0.0062779,0.00228307,-0.000339674,2.29347e-05,-0.00691173,-0.00261965,0.00574275,0,0,0,0,0,0,0,0,0,-0.000617616,1.58904e-05,-0.000158681,-0.000213062,-0.000326896,0.000157873,-5.23201e-05,4.61619e-06,0.00033848,0.000212192,-3.90575e-05,3.40476e-05
240,0.00051179,-0.00291837,-0.00332582,0.0013755,0.114959,0.114959,0.114959,0.114959,0.114959,0.114959,0.114959,0.114959,0.114959,-0.885041,0.043526,-0.00482567,0.886124,-0.00291837,-0.00332582,0.0013755,0.00197944,-0.00483459,-0.0064934,-0.00138118,0.0053834,0.00136435,0.114959,-0.0143809,-0.0386884,0.00316287,0.0206355,-0.0808666,0.108518,0.496042,0.122473,0.0150872,0.00128065,0.00484513,0.386624,-0.0185903,-0.0137247,-0.884042,0.00197944,-0.00483459,-0.0064934,-0.00138118,0.0053834,0.00136435,0,0,0,0,0,0,0,0,0,-0.000550404,-4.92505e-05,-2.2942e-05,0.000670011,-0.000335986,6.22484e-06,8.12867e-05,9.01202e-05,0.000393584,0.000350239,1.21651e-05,-4.90451e-05
241,0.00051179,0.00132801,-0.00118051,-0.0118757,0.0952483,0.0952483,0.0952483,0.0952483,0.0952483,0.0952483,0.0952483,0.0952483,0.0952483,-0.845248,-0.00122143,-0.509162,0.986759,0.00132801,-0.00118051,-0.0118757,-0.0021043,-0.000427119,-0.000594413,-0.00437798,-0.00170602,0.0009019,0.0952483,-0.000188395,0.0212652,-0.000842623,0.00599015,-0.000125607,-0.00341823,0.0619698,-0.0224676,0.0177122,0.00701478,-0.00536165,0.000896827,-0.0118244,-0.00451634,-0.0509909,-0.0021043,-0.000427119,-0.000594413,-0.00437798,-0.00170602,0.0009019,0,0,0,0,0,0,0,0,0,-0.000431933,-2.00332e-05,5.37046e-07,-0.000349819,-0.000312204,-1.32345e-05,5.81012e-05,-5.00226e-05,0.000352979,0.000309693,-2.06541e-05,-2.66419e-05
242,0.00051179,0.161401,0.0514781,0.0996933,0.0298079,0.0298079,0.0298079,0.0298079,0.0298079,0.0298079,0.0298079,0.0298079,0.0298079,-0.779808,-0.878739,0.0571634,1.17624,0.161401,0.0514781,0.0996933,-0.0400758,-0.00422421,-0.0330408,0.0353699,0.00680581,-0.0146462,0.0298079,1.29129,15.4802,0.236378,2.50298,-0.00648729,0.855638,3.79198,-15.6352,0.0296433,0.459373,0.0865671,0.300114,-3.01383,-0.392241,-4.19179,-0.0400758,-0.00422421,-0.0330408,0.0353699,0.00680581,-0.0146462,0,0,0,0,0,0,0,0,0,-6.42985e-06,0.00520683,0.000261514,0.00771949,-0.000147814,0.00206002,-0.000724173,0.00313083,0.000657007,0.000506475,-0.0021971,-0.00308368
243,0.00051179,-0.00386489,-0.0143284,0.0102874,0.0291646,0.0291646,0.0291646,0.0291646,0.0291646,0.0291646,0.0291646,0.0291646,0.0291646,-0.779165,-0.092582,-0.502875,0.931961,-0.00386489,-0.0143284,0.0102874,-0.0054706,0.00162169,0.00552688,-0.000331765,-2.09366e-05,0.00678208,0.0291646,-9.94056e-05,0.0070093,-0.000397734,0.0129666,0.000569931,-0.000557065,0.0248769,-0.00371433,0.0251252,0.0158185,-0.00602244,0.00129577,-0.0144568,-0.0050174,-0.0364601,-0.0054706,0.00162169,0.00552688,-0.000331765,-2.09366e-05,0.00678208,0,0,0,0,0,0,0,0,0,-0.000438988,-5.20671e-05,5.40287e-05,-0.000340523,-0.000322009,-4.17892e-05,9.97501e-05,-4.90591e-05,0.000377454,0.000390221,-1.13747e-05,-1.53936e-05
244,0.00051179,-0.0161475,0.0589305,-0.0143988,0.00458997,0.00458997,0.00458997,0.00458997,0.00458997,0.00458997,0.00458997,0.00458997,0.00458997,-0.99541,0.543816,0.2675,1.16539,-0.0161475,0.0589305,-0.0143988,0.00492772,-0.0079087,0.0282665,0.0270725,-0.00882258,-0.0151224,0.00458997,0.221672,-0.0382551,-0.00128304,0.191513,-0.194539,-0.0921362,-0.37295,0.248942,0.0479342,-0.164005,-0.0152686,0.0684095,-0.0864382,0.00833334,0.318939,0.00492772,-0.0079087,0.0282665,0.0270725,-0.00882258,-0.0151224,0,0,0,0,0,0,0,0,0,-0.000452228,0.000792826,0.00039907,-4.47281e-05,-0.000275934,-0.000490988,3.48593e-05,-0.000183972,0.000310712,-0.000593969,-5.69395e-05,-0.00037412
245,0.00051179,0.0089108,0.000572831,-0.00891674,0.0152848,0.0152848,0.0152848,0.0152848,0.0152848,0.0152848,0.0152848,0.0152848,0.0152848,-0.765285,-0.482422,-0.941015,1.30534,0.0089108,0.000572831,-0.00891674,-0.00889251,0.00597788,-0.0010543,-0.00132248,-0.00383704,-0.00269162,0.0152848,0.000677779,-0.0120634,-0.000181489,0.00319954,0.000112339,0.000779957,-0.00282932,0.00304027,0.000515936,0.00219626,0.000136985,-0.000945344,-0.00596863,1.46292e-05,0.0126914,-0.00889251,0.00597788,-0.0010543,-0.00132248,-0.00383704,-0.00269162,0,0,0,0,0,0,0,0,0,-0.000352688,-2.75757e-05,0.000209567,-0.000385629,-0.000320667,-0.000151603,9.4653e-06,-7.72407e-05,0.000385679,0.000382885,4.02402e-05,1.1305e-07
246,0.00051179,-0.0312958,-0.0135493,-0.00534225,0.0203439,0.0203439,0.0203439,0.0203439,0.0203439,0.0203439,0.0203439,0.0203439,0.0203439,-0.831252,0.979656,-0.179445,1.29727,-0.0312958,-0.0135493,-0.00534225,-0.0795095,-0.028322,-0.0825558,-0.00300686,0.0593935,0.0147285,0.0203439,-0.181407,0.657354,0.0340491,-0.0807071,-1.29143,0.024111,-2.18849,0.665373,-0.00204398,0.0741187,0.0277131,-1.06113,0.0201378,0.273074,3.25496,-0.0795095,-0.028322,-0.0825558,-0.00300686,0.0593935,0.0147285,0,0,0,0,0,0,0,0,0,-0.00110018,-0.00132978,-0.00147808,-0.00162962,-5.80791e-05,0.00153536,-5.0448e-05,0.000834091,0.000384226,0.00104517,3.69753e-05,0.00141382
247,0.00051179,-0.00362355,0.00058515,-0.00583863,0.0593068,0.0593068,0.0593068,0.0593068,0.0593068,0.0593068,0.0593068,0.0593068,0.0593068,-0.940693,-0.74741,0.329482,1.24583,-0.00362355,0.00058515,-0.00583863,-0.00289708,0.00144903,0.00245564,0.00481911,0.0124979,-0.00425832,0.0593068,0.0663162,-0.328763,0.0201266,-0.0757644,-0.0554755,-0.0410567,-0.0270103,0.387862,-0.00366421,0.0139321,-0.0140847,0.0806497,0.0612472,0.0239712,-0.0478008,-0.00289708,0.00144903,0.00245564,0.00481911,0.0124979,-0.00425832,0,0,0,0,0,0,0,0,0,-0.000343449,0.000219841,-0.000629187,-0.000436667,-0.000356192,0.000844943,-9.14796e-05,-8.53829e-05,0.000299141,5.06563e-05,6.95154e-05,1.31023e-06
248,0.00051179,0.134773,-0.610694,-0.481843,0.00453459,0.00453459,0.00453459,0.00453459,0.00453459,0.00453459,0.00453459,0.00453459,0.00453459,-0.689297,-0.983647,0.0954654,1.20491,0.134773,-0.610694,-0.481843,0.213893,0.745809,-0.119802,0.0894567,-0.305649,-0.381244,0.00453459,4.38544,71.1747,0.159895,1.10957,9.46039,-0.429809,-4.13856,-80.7699,0.0269454,1.06108,-0.0379425,-1.74038,-1.55997,0.239329,6.36079,0.213893,0.745809,-0.119802,0.0894567,-0.305649,-0.381244,0,0,0,0,0,0,0,0,0,0.00118986,0.0177192,-0.0054016,-0.00376234,0.000858879,0.0144586,-0.00469547,0.00824425,0.00121168,-0.00173377,-0.0116802,-0.00598706
249,0.00051179,-0.0287288,0.0132335,0.00438111,0.0692743,0.0692743,0.0692743,0.0692743,0.0692743,0.0692743,0.0692743,0.0692743,0.0692743,-0.819274,0.918406,-0.375776,1.28681,-0.0287288,0.0132335,0.00438111,-0.0120771,-0.00866098,0.0132189,-0.00395295,0.0249014,0.0204368,0.0692743,0.000153497,-0.0239801,0.000817157,-0.0375355,-0.00507076,0.00304021,-0.124128,0.0577797,0.00789027,-0.120259,0.0106077,-0.0812509,0.144561,0.00934802,0.200998,-0.0120771,-0.00866098,0.0132189,-0.00395295,0.0249014,0.0204368,0,0,0,0,0,0,0,0,0,-0.00081671,-8.47703e-05,-0.000671194,-0.000790826,-0.000183696,0.000592756,-5.46553e-06,0.000461715,0.00032068,0.000953417,-0.000106624,0.000123772
250,0.00051179,0.00151731,0.00121052,-0.00232802,0.118218,0.118218,0.118218,0.118218,0.118218,0.118218,0.118218,0.118218,0.118218,-0.868218,0.478289,-0.599922,1.15865,0.00151731,0.00121052,-0.00232802,-0.00351852,-0.000357579,0.001756,0.00169961,0.00133994,-0.00322734,0.118218,0.000295117,0.0212722,-0.00157928,0.0174321,0.000851354,-0.00279457,0.030344,-0.0236408,0.00969289,-0.0117257,-0.00135514,0.0077933,-0.00691689,-0.0016559,-0.0358093,-0.00351852,-0.000357579,0.001756,0.00169961,0.00133994,-0.00322734,0,0,0,0,0,0,0,0,0,-0.0004737,-1.99084e-05,-0.000296228,-0.000368506,-0.000284517,0.00027686,5.31711e-05,6.42645e-05,0.000325195,0.000358121,-6.44166e-05,-2.82076e-05
251,0.00051179,0.0255026,0.0192016,-0.027752,0.025539,0.025539,0.025539,0.025539,0.025539,0.025539,0.025539,0.025539,0.025539,-0.974461,0.172709,0.266633,1.02494,0.0255026,0.0192016,-0.027752,0.00900227,-0.00783422,-0.00172015,-0.00323734,0.00859097,0.0103245,0.025539,0.0699871,-0.0915098,0.0227841,-0.00106282,0.0504559,-0.0273997,-0.190064,0.0155513,0.0710958,-0.0171595,-0.0148053,-0.0651662,-0.000979244,-0.00948748,0.282983,0.00900227,-0.00783422,-0.00172015,-0.00323734,0.00859097,0.0103245,0,0,0,0,0,0,0,0,0,-0.000526987,0.000224541,0.000105275,-0.000247158,-0.000318492,4.42231e-05,0.000168887,-8.18117e-05,0.000296593,-4.40407e-05,1.96682e-05,-0.000166221
252,0.00051179,0.00253776,-0.00331435,0.00428771,0.0489079,0.0489079,0.0489079,0.0489079,0.0489079,0.0489079,0.0489079,0.0489079,0.0489079,-0.798908,-0.919869,0.902344,1.51613,0.00253776,-0.00331435,0.00428771,0.00539232,0.00162207,0.000702187,0.00428444,-0.000706318,0.00643464,0.0489079,0.000969365,-0.00497322,-0.000394218,0.00184355,0.00116247,0.000178937,-0.000226895,0.00127299,-0.000897991,-0.000936868,-0.000330833,-0.0031985,0.00240767,-0.00066933,-0.000862315,0.00539232,0.00162207,0.000702187,0.00428444,-0.000706318,0.00643464,0,0,0,0,0,0,0,0,0,-0.00051108,1.39083e-05,-0.000323198,-0.000463384,-0.000313068,0.000335477,-9.67867e-07,-3.28775e-05,0.000360899,0.000472195,2.2506e-05,1.09264e-05
253,0.00051179,0.00564003,-0.0125065,-0.00255752,0.0741821,0.0741821,0.0741821,0.0741821,0.0741821,0.0741821,0.0741821,0.0741821,0.0741821,-0.925818,-0.806264,0.145903,1.23632,0.00564003,-0.0125065,-0.00255752,-0.00971368,-0.0154837,0.0246798,0.00150804,0.0151696,0.00938568,0.0741821,0.433239,2.93374,0.0980136,0.347372,-0.0857333,0.0730304,-1.22805,-2.85365,0.0225029,0.16705,-0.00499224,0.0844868,-0.501915,-0.105133,1.14612,-0.00971368,-0.0154837,0.0246798,0.00150804,0.0151696,0.00938568,0,0,0,0,0,0,0,0,0,-0.000262804,0.00171172,-0.000425692,0.000730827,-0.000317508,0.00125099,-0.000285855,8.40704e-05,0.000357054,0.000246275,1.77029e-05,-0.000884647
254,0.00051179,0.00653745,0.00446256,-0.00117896,0.011657,0.011657,0.011657,0.011657,0.011657,0.011657,0.011657,0.011657,0.011657,-0.942315,0.988343,0.925227,1.64949,0.00653745,0.00446256,-0.00117896,0.00317554,-0.00462231,-0.000839647,0.00361724,0.00103171,0.00688566,0.011657,0.00150122,-0.00301682,-0.00020843,-0.00263433,-0.000992197,0.000273943,-3.7484e-05,-0.00252844,-0.000772389,-0.00467556,-0.000587541,-0.00148589,0.00284734,-0.00187667,0.00270233,0.00317554,-0.00462231,-0.000839647,0.00361724,0.00103171,0.00688566,0,0,0,0,0,0,0,0,0,-0.00054355,8.9254e-06,0.000234372,-0.000503637,-0.000312919,-0.000282679,-2.34139e-07,3.37228e-05,0.00025931,0.00049798,-2.92811e-05,1.05866e-05
255,0.00051179,0.0073148,0.00396684,0.0249532,0.0938404,0.0938404,0.0938404,0.0938404,0.0938404,0.0938404,0.0938404,0.0938404,0.0938404,-0.84384,-0.357372,0.287136,0.960327,0.0073148,0.00396684,0.0249532,0.000942348,-0.00769022,-0.00888486,0.00343907,0.0139396,0.00602199,0.0938404,0.0421139,-0.904689,-0.00490671,0.103423,-0.00655813,-0.0578811,0.629086,0.903932,0.00750841,0.228942,0.0260168,-0.0259389,-0.336332,0.058445,-0.6281,0.000942348,-0.00769022,-0.00888486,0.00343907,0.0139396,0.00602199,0,0,0,0,0,0,0,0,0,-0.000473373,7.85843e-05,-0.000371698,-0.000809425,-0.000372792,0.000245728,-8.19596e-05,0.000322206,0.000303626,0.000141766,7.73587e-05,0.000185638
256,0.00051179,0.0256101,0.0160658,-0.00460822,0.0475232,0.0475232,0.0475232,0.0475232,0.0475232,0.0475232,0.0475232,0.0475232,0.0475232,-0.797523,-0.924246,-0.424656,1.29252,0.0256101,0.0160658,-0.00460822,-0.0156921,0.00579878,0.0091456,-0.00549642,-0.0144901,0.010936,0.0475232,0.00143726,-0.0247577,-0.00164276,-0.00989707,-0.00655402,0.000484876,-0.0509727,0.00570163,0.00313343,0.0572589,-0.00671108,-0.0544507,-0.0634276,0.0146503,0.110032,-0.0156921,0.00579878,0.0091456,-0.00549642,-0.0144901,0.010936,0,0,0,0,0,0,0,0,0,-0.000768244,-8.16223e-05,0.000585914,-0.000738097,-0.000417108,-0.000544354,-2.21632e-05,-0.000395779,0.000353649,0.000834402,0.000183767,0.000117583
257,0.00051179,-0.00180435,-0.00250199,0.00695293,0.0547161,0.0547161,0.0547161,0.0547161,0.0547161,0.0547161,0.0547161,0.0547161,0.0547161,-0.945284,0.544077,0.545365,1.21943,-0.00180435,-0.00250199,0.00695293,0.000703666,-0.000528596,-0.00417763,0.00605692,-0.00563175,0.00101737,0.0547161,0.00738515,-0.0754093,-0.00232439,0.00556685,-0.00646287,-0.0092769,0.0554171,0.0836765,0.00304086,-0.031614,-0.00147393,0.00415362,0.0285492,0.0102102,-0.0665237,0.000703666,-0.000528596,-0.00417763,0.00605692,-0.00563175,0.00101737,0,0,0,0,0,0,0,0,0,-0.000522785,7.65845e-06,0.000344431,-0.000331009,-0.000320191,-0.000372961,1.27033e-05,-2.06423e-05,0.000282459,0.000196464,-5.04145e-05,2.33524e-05
258,0.00051179,-0.0051992,-0.000747057,-0.00467599,0.0148375,0.0148375,0.0148375,0.0148375,0.0148375,0.0148375,0.0148375,0.0148375,0.0148375,-0.901684,0.342948,-0.985162,1.37884,-0.0051992,-0.000747057,-0.00467599,-0.00502536,0.000364975,0.00103356,-0.00910608,-0.00182429,-0.00111446,0.0148375,0.00226976,-0.0126232,-0.000222377,0.00134723,-0.000353882,0.000459429,0.00156839,0.0181763,-0.00112388,0.00140249,0.000136599,9.31435e-05,-0.00200266,-0.00154172,0.00301446,-0.00502536,0.000364975,0.00103356,-0.00910608,-0.00182429,-0.00111446,0,0,0,0,0,0,0,0,0,-0.000305504,4.27017e-06,-0.000137297,-0.000367306,-0.000313932,0.000138723,-3.31017e-05,4.88146e-05,0.000322938,0.000382236,-6.56915e-05,4.76728e-06
259,0.00051179,0.000897735,0.0298226,0.030693,0.00204959,0.00204959,0.00204959,0.00204959,0.00204959,0.00204959,0.00204959,0.00204959,0.00204959,-0.99795,-0.339186,-0.0107529,1.05407,0.000897735,0.0298226,0.030693,0.0145259,-0.00412969,-0.00483743,0.0113609,-0.0137688,-0.0153145,0.00204959,-0.0124518,-0.354868,0.0242233,-0.164978,0.0382907,0.110991,0.513085,0.31568,-0.00226678,0.0266225,-0.0589848,-0.025477,0.108533,0.0109546,-0.518301,0.0145259,-0.00412969,-0.00483743,0.0113609,-0.0137688,-0.0153145,0,0,0,0,0,0,0,0,0,-0.000569917,2.5148e-06,0.000121495,0.000405698,-0.00036549,7.94417e-05,3.76147e-05,-0.000410577,0.000417143,0.000655842,-0.000316959,-2.96551e-05
260,0.00051179,0.00640726,0.00778458,0.00512775,0.0329613,0.0329613,0.0329613,0.0329613,0.0329613,0.0329613,0.0329613,0.0329613,0.0329613,-0.967039,0.16328,0.588232,1.14361,0.00640726,0.00778458,0.00512775,-0.000135942,0.00276368,-0.00112099,0.00541135,-0.00428081,0.00301091,0.0329613,0.00539716,-0.0533606,-0.00161391,0.0124541,-9.10705e-05,-0.00565862,0.0412411,0.0470445,0.0136401,-0.00989099,0.00116639,-0.0063828,-0.0103477,0.00793876,-0.0399861,-0.000135942,0.00276368,-0.00112099,0.00541135,-0.00428081,0.00301091,0,0,0,0,0,0,0,0,0,-0.00061617,-1.43812e-05,9.85681e-05,-0.000215994,-0.000330651,-8.70704e-05,5.45699e-05,-5.23066e-06,0.000294253,0.000148198,-2.59135e-05,1.4061e-05
261,0.00051179,0.0177909,-0.0148532,-0.000655919,0.051374,0.051374,0.051374,0.051374,0.051374,0.051374,0.051374,0.051374,0.051374,-0.948626,-0.0361719,-0.198541,0.969855,0.0177909,-0.0148532,-0.000655919,-0.00240215,0.00611914,-3.99221e-05,-0.00253736,0.00367546,-0.00646976,0.051374,-0.0925853,-0.112492,-0.0024045,0.103648,-0.233535,-0.0230236,-0.234482,0.328237,-0.0405753,0.0348035,-0.00786818,-0.0475737,-0.123599,0.0188639,0.282712,-0.00240215,0.00611914,-3.99221e-05,-0.00253736,0.00367546,-0.00646976,0,0,0,0,0,0,0,0,0,-0.000556782,-0.000329892,3.91837e-05,-0.000316323,-0.00032174,-2.0374e-06,-7.05177e-05,-4.36321e-06,0.000337467,8.56878e-05,-3.7564e-05,0.000207016
262,0.00051179,0.0463833,0.0737195,-0.119393,0.00983455,0.00983455,0.00983455,0.00983455,0.00983455,0.00983455,0.00983455,0.00983455,0.00983455,-0.759835,-0.954098,0.226897,1.24062,0.0463833,0.0737195,-0.119393,0.0300342,0.0260868,0.191589,-0.0744137,-0.1282,-0.24033,0.00983455,0.00218548,-0.0606363,0.00159306,-0.141158,0.0519031,0.00125663,-0.0601237,-0.0376501,-0.00536479,-0.295192,-0.0244025,-0.393932,0.36263,-0.06613,0.573449,0.0300342,0.0260868,0.191589,-0.0744137,-0.1282,-0.24033,0,0,0,0,0,0,0,0,0,-7.85068e-05,0.000569582,-0.000787676,-0.00142097,-0.000127608,0.00106447,9.59111e-06,-0.00132886,0.000485286,0.00334943,-0.000197163,-0.00112382
263,0.00051179,0.00120251,-0.000808373,-0.00475262,0.0871226,0.0871226,0.0871226,0.0871226,0.0871226,0.0871226,0.0871226,0.0871226,0.0871226,-0.912877,0.0669238,-0.590511,1.08928,0.00120251,-0.000808373,-0.00475262,-0.00349239,0.00028158,0.00245132,-0.00502903,-0.0013836,-0.00156265,0.0871226,-0.00111793,0.0308773,-0.00254833,0.0141738,-0.000115735,-0.00451798,0.0306872,-0.0319641,0.00737671,0.00575919,-0.00453726,0.00238133,-0.0191246,-0.00269958,-0.028316,-0.00349239,0.00028158,0.00245132,-0.00502903,-0.0013836,-0.00156265,0,0,0,0,0,0,0,0,0,-0.00040523,-1.55229e-05,-4.26023e-05,-0.000315759,-0.000306422,1.99348e-05,1.92671e-05,-2.99089e-05,0.000333175,0.000295093,-2.92997e-05,-1.37825e-05
264,0.00051179,0.0146187,0.00457602,-0.000493819,0.0240196,0.0240196,0.0240196,0.0240196,0.0240196,0.0240196,0.0240196,0.0240196,0.0240196,-0.97598,-0.17519,0.64235,1.18146,0.0146187,0.00457602,-0.000493819,0.000623893,-0.000772221,-0.000508128,0.00813997,0.000288889,0.000352568,0.0240196,0.00336535,-0.0326144,-0.000931434,0.0141938,-0.000959775,-0.00400964,0.0275707,0.0189554,0.0110698,0.00608276,0.00115236,0.000539015,-0.0248526,0.00650913,-0.0276158,0.000623893,-0.000772221,-0.000508128,0.00813997,0.000288889,0.000352568,0,0,0,0,0,0,0,0,0,-0.000624336,-1.47392e-05,-0.000114376,-0.000203834,-0.000349695,9.7339e-05,6.13633e-05,3.80244e-05,0.000303388,0.000158656,-2.3612e-05,-3.76909e-07
265,0.00051179,-0.00090777,-0.00439144,-0.00437068,0.0908799,0.0908799,0.0908799,0.0908799,0.0908799,0.0908799,0.0908799,0.0908799,0.0908799,-0.84088,-0.674944,-0.771624,1.32591,-0.00090777,-0.00439144,-0.00437068,-0.00580895,0.00258607,0.00310343,-0.00172539,-0.00330467,-0.000336155,0.0908799,0.000379518,0.00723724,-0.000809781,0.00495146,7.78606e-05,-7.76649e-05,-0.00156835,-0.00640733,0.000135107,0.00401259,-0.000443867,0.000386776,-0.0045726,0.000579689,0.00555226,-0.00580895,0.00258607,0.00310343,-0.00172539,-0.00330467,-0.000336155,0,0,0,0,0,0,0,0,0,-0.000470415,-1.93285e-05,0.000328383,-0.000423989,-0.000319505,-0.00031062,-1.32757e-07,-0.000119582,0.000344425,0.000454246,8.20968e-05,9.03634e-06
266,0.00051179,-2.45869e-05,0.00247703,-0.00273909,0.0557373,0.0557373,0.0557373,0.0557373,0.0557373,0.0557373,0.0557373,0.0557373,0.0557373,-0.805737,-0.529076,0.626914,1.14985,-2.45869e-05,0.00247703,-0.00273909,-0.00295601,0.000289895,0.000552848,-0.00733953,-0.00527438,0.00600898,0.0557373,0.000472382,-0.00835076,0.000366338,0.0010116,-0.000663976,-0.000125714,0.0124148,0.00903932,-0.00290258,-0.00425614,-0.000907022,0.00141848,0.000767511,0.000116598,-0.0110942,-0.00295601,0.000289895,0.000552848,-0.00733953,-0.00527438,0.00600898,0,0,0,0,0,0,0,0,0,-0.00054305,-4.80258e-06,-0.000333676,-0.000273034,-0.0003128,0.000340239,-4.3595e-05,-3.00909e-05,0.000347801,0.000277305,-3.17231e-05,3.82435e-05
267,0.00051179,0.0156476,-0.0129419,-0.00441743,0.0881583,0.0881583,0.0881583,0.0881583,0.0881583,0.0881583,0.0881583,0.0881583,0.0881583,-0.911842,0.357382,0.28688,1.02053,0.0156476,-0.0129419,-0.00441743,0.0037952,-0.00175256,0.00505875,0.00750559,0.00155179,0.00803516,0.0881583,0.0988193,-0.657001,0.0202731,-0.108216,-0.012918,-0.0754456,-0.0598171,0.654271,0.0391007,-0.131479,-0.0340416,-0.0232588,0.252637,0.0354031,0.0874934,0.0037952,-0.00175256,0.00505875,0.00750559,0.00155179,0.00803516,0,0,0,0,0,0,0,0,0,-0.000477783,0.000290774,0.000324751,-0.000567645,-0.000304693,-0.000139545,1.07327e-05,-0.000240285,0.000282228,-0.000136224,-8.46132e-05,-5.10781e-06
268,0.00051179,-0.0123448,-0.0465673,0.00690721,0.00967272,0.00967272,0.00967272,0.00967272,0.00967272,0.00967272,0.00967272,0.00967272,0.00967272,-0.990327,0.764447,-0.112789,1.25612,-0.0123448,-0.0465673,0.00690721,0.0382751,-0.0130504,0.00613884,-0.0507372,-0.0178715,-0.0374287,0.00967272,-0.314797,-2.33936,0.0618353,0.259901,0.232435,0.133458,-0.168427,2.11927,-0.00377931,0.132303,-0.0303788,-0.0230896,-0.345637,0.0759006,0.184609,0.0382751,-0.0130504,0.00613884,-0.0507372,-0.0178715,-0.0374287,0,0,0,0,0,0,0,0,0,-0.000721611,-0.00104503,-0.000358298,0.000805285,-0.000295365,0.000846147,6.4994e-05,4.14251e-05,0.000329629,0.000590684,-0.000523929,0.000529936
269,0.00051179,0.0150927,-7.24178e-05,-0.00178382,0.010119,0.010119,0.010119,0.010119,0.010119,0.010119,0.010119,0.010119,0.010119,-0.760119,-0.601699,0.856064,1.29332,0.0150927,-7.24178e-05,-0.00178382,0.00311142,-0.00412131,-0.00547824,-0.00577791,-0.00658632,0.00751657,0.010119,0.000324681,-0.0150249,-0.00012552,-0.00252214,-0.000247211,0.000478566,0.0025321,0.000179429,-0.000643568,-0.00091841,-0.000625823,0.000315843,0.00351296,-0.000728697,-0.00106412,0.00311142,-0.00412131,-0.00547824,-0.00577791,-0.00658632,0.00751657,0,0,0,0,0,0,0,0,0,-0.000589438,1.2793e-05,-0.000277538,-0.000340672,-0.00030526,0.00023507,-3.64949e-05,-3.87891e-05,0.000370376,0.000290675,-3.33323e-05,2.95519e-05
270,0.00051179,0.00914727,-0.00831939,0.00588865,0.013997,0.013997,0.013997,0.013997,0.013997,0.013997,0.013997,0.013997,0.013997,-0.783083,0.890365,0.986003,1.54213,0.00914727,-0.00831939,0.00588865,0.01891,-0.0036184,0.00626545,0.00608019,0.00822135,0.00685189,0.013997,0.00070484,-0.00508365,-0.000512175,0.00227651,-0.000445878,0.000168927,-0.00247448,-0.00361774,-0.00132039,0.00130641,-0.000112043,-0.000529713,0.00473647,-0.000960249,-0.00288445,0.01891,-0.0036184,0.00626545,0.00608019,0.00822135,0.00685189,0,0,0,0,0,0,0,0,0,-0.000591196,6.31516e-05,0.000242462,-0.000381653,-0.000352347,-0.000283768,-1.11237e-05,9.5426e-05,0.000339016,0.000445996,-1.43329e-05,-5.46441e-06
271,0.00051179,0.00178858,0.00488284,-0.00233091,0.0443511,0.0443511,0.0443511,0.0443511,0.0443511,0.0443511,0.0443511,0.0443511,0.0443511,-0.794351,-0.308802,0.620298,1.0541,0.00178858,0.00488284,-0.00233091,0.000630411,-0.000117335,0.00140521,-0.00888642,-0.00307222,0.00457314,0.0443511,0.000521079,-0.00743953,0.000290759,0.00217173,-3.67116e-05,-9.56021e-05,0.0101408,0.00568767,-0.00489138,-0.00595081,-0.000788436,6.5825e-05,-0.00110376,0.000587616,-0.00787575,0.000630411,-0.000117335,0.00140521,-0.00888642,-0.00307222,0.00457314,0,0,0,0,0,0,0,0,0,-0.000600047,1.43715e-05,-0.000199589,-0.000217756,-0.000321323,0.000201323,-6.02749e-05,2.38171e-06,0.000342414,0.000230852,-4.09882e-05,3.44179e-05
272,0.00051179,-0.00441603,-0.00108662,-0.0079982,0.0431193,0.0431193,0.0431193,0.0431193,0.0431193,0.0431193,0.0431193,0.0431193,0.0431193,-0.956881,-0.448637,-0.71389,1.27536,-0.00441603,-0.00108662,-0.0079982,-0.00181426,0.00423954,-0.000199474,-0.0096004,0.00257769,0.00422447,0.0431193,-0.00228177,0.0319488,-0.00246065,0.0140306,-0.00132612,-0.00176647,0.0140354,-0.0262067,0.000669105,0.00295459,-0.00191313,-0.00460651,-0.0158986,-0.00186094,-0.00143071,-0.00181426,0.00423954,-0.000199474,-0.0096004,0.00257769,0.00422447,0,0,0,0,0,0,0,0,0,-0.000422083,-8.17577e-06,0.000262575,-0.000343371,-0.000294084,-0.000244787,-3.23521e-05,-5.52316e-05,0.000316665,0.000323712,6.18771e-05,2.41221e-05
273,0.00051179,-0.00134025,-0.00485326,0.00784786,0.0714408,0.0714408,0.0714408,0.0714408,0.0714408,0.0714408,0.0714408,0.0714408,0.0714408,-0.821441,0.451468,0.4227,1.02823,-0.00134025,-0.00485326,0.00784786,0.00203174,-0.00381478,0.00336263,-0.000828119,-0.00751102,0.0146554,0.0714408,0.00249024,-0.082619,-0.000562124,-0.00342658,-0.00549844,-0.00884796,0.145408,0.0894577,-0.015076,-0.0339643,-0.00131333,0.0172075,0.0422441,0.0155037,-0.170463,0.00203174,-0.00381478,0.00336263,-0.000828119,-0.00751102,0.0146554,0,0,0,0,0,0,0,0,0,-0.000512138,9.44096e-07,0.000329364,-0.000397096,-0.000356132,-0.000373133,-0.000101186,-6.16947e-05,0.000304885,0.000342243,-2.65487e-05,0.00012913
274,0.00051179,-5.72968e-05,-0.0137696,0.00928689,3.61548e-05,3.61548e-05,3.61548e-05,3.61548e-05,3.61548e-05,3.61548e-05,3.61548e-05,3.61548e-05,3.61548e-05,-0.99968,-0.999964,0.684238,1.57082,-5.72968e-05,-0.0137696,0.00928689,-0.00622116,0.0072482,0.00163484,0.00226491,0.00395615,0.0158436,3.61548e-05,0.000751272,-0.00143813,0.000282653,-0.000870076,0.00553101,-0.00127313,0.00907934,-0.00403558,-0.00057097,0.0187858,0.000993303,-0.0150267,-0.00414607,-0.000675019,-0.0033395,-0.00622116,0.0072482,0.00163484,0.00226491,0.00395615,0.0158436,0,0,0,0,0,0,0,0,0,-0.000369005,-4.04948e-05,-0.000454694,-0.000566632,-0.000391895,0.000530002,-4.67561e-06,7.26169e-05,0.000264764,0.000570249,-2.31224e-05,6.26974e-05
275,0.00051179,0.00188655,0.0101328,-0.000888053,0.00948285,0.00948285,0.00948285,0.00948285,0.00948285,0.00948285,0.00948285,0.00948285,0.00948285,-0.759483,0.0536854,-0.737583,1.06006,0.00188655,0.0101328,-0.000888053,-0.00239705,-0.00223263,-0.00498078,0.00944196,-0.000441278,-0.00059565,0.00948285,0.000363424,-0.00143284,-0.000470869,0.0109981,0.00036529,-3.18065e-05,0.0118786,-0.000818999,0.0122711,-0.00804145,-0.0019743,0.00147553,-0.0130895,0.00175225,-0.0124661,-0.00239705,-0.00223263,-0.00498078,0.00944196,-0.000441278,-0.00059565,0,0,0,0,0,0,0,0,0,-0.000363231,-3.42097e-05,-3.64076e-05,-0.000324675,-0.000300849,9.37259e-06,8.45237e-05,1.95832e-06,0.000383064,0.000274549,-2.61141e-05,-1.82586e-05
276,0.00051179,0.000962659,7.08159e-05,-0.00343641,0.12268,0.12268,0.12268,0.12268,0.12268,0.12268,0.12268,0.12268,0.12268,-0.87732,0.110199,-0.853031,1.22862,0.000962659,7.08159e-05,-0.00343641,-0.00745318,-0.000731759,0.00181873,-0.00124949,-0.00183787,-0.00161205,0.12268,8.066e-05,0.00644588,-0.000893198,0.0045704,0.000229959,0.000886839,-0.00397898,-0.0076385,-0.000558065,-0.000156455,-0.000266832,0.000885317,-0.00448476,-0.000478119,0.00653007,-0.00745318,-0.000731759,0.00181873,-0.00124949,-0.00183787,-0.00161205,0,0,0,0,0,0,0,0,0,-0.000325583,-2.38585e-05,-5.99576e-05,-0.000312653,-0.000304008,4.37081e-05,3.96635e-06,1.393e-05,0.000344455,0.000339709,-3.49771e-05,2.55328e-06
277,0.00051179,-0.0266733,-0.00719818,0.00297022,0.100571,0.100571,0.100571,0.100571,0.100571,0.100571,0.100571,0.100571,0.100571,-0.899429,0.847403,0.0154054,1.23584,-0.0266733,-0.00719818,0.00297022,-0.0158665,0.00404877,-0.00377859,-0.0067825,-0.0155726,-0.0134233,0.100571,0.116406,1.12285,-0.0298594,-0.158402,-0.0277752,0.550362,3.03108,-1.0684,0.010249,-0.109195,-0.0807664,0.118703,0.274796,-0.0423115,-3.15275,-0.0158665,0.00404877,-0.00377859,-0.0067825,-0.0155726,-0.0134233,0,0,0,0,0,0,0,0,0,-0.000521809,0.000446998,5.14049e-05,0.00379586,-0.000307227,-0.000309511,-3.83647e-05,-0.00114044,0.000474542,0.00166998,0.00017705,-0.000334371
278,0.00051179,-0.0749102,-0.0456434,-0.0243764,0.00570912,0.00570912,0.00570912,0.00570912,0.00570912,0.00570912,0.00570912,0.00570912,0.00570912,-0.994291,0.90001,0.242153,1.36282,-0.0749102,-0.0456434,-0.0243764,-0.0161626,-0.0112859,0.0146188,0.0162352,-0.0663145,0.00967591,0.00570912,0.05848,0.913016,-0.0445947,0.0339722,0.254349,0.067881,-0.448413,-1.09245,-0.000260549,0.0140694,0.0139989,-0.0291746,-0.00239819,-0.0315519,0.501964,-0.0161626,-0.0112859,0.0146188,0.0162352,-0.0663145,0.00967591,0,0,0,0,0,0,0,0,0,-0.000222795,0.000169569,0.00105953,7.47035e-05,-0.000276173,-0.00161833,3.78548e-05,-6.80351e-05,0.000215739,0.000750294,-0.000455121,-0.000151399
279,0.00051179,-0.00212303,-0.0135742,0.0122511,0.0145919,0.0145919,0.0145919,0.0145919,0.0145919,0.0145919,0.0145919,0.0145919,0.0145919,-0.764592,-0.0744901,-0.659436,1.01243,-0.00212303,-0.0135742,0.0122511,-0.0140316,0.00251571,-0.000346482,0.0027805,-0.00186627,0.00055723,0.0145919,0.000701562,0.000376142,-0.00057178,0.0170358,0.000514168,2.40579e-05,0.0187013,0.00123272,0.0171636,0.0141009,-0.00333403,0.000742307,-0.0175626,-0.000277501,-0.0316946,-0.0140316,0.00251571,-0.000346482,0.0027805,-0.00186627,0.00055723,0,0,0,0,0,0,0,0,0,-0.000388809,-7.46045e-05,3.9405e-05,-0.000329031,-0.000313396,-1.99657e-05,9.17662e-05,-3.40233e-05,0.000383534,0.000325807,-1.79798e-05,-6.55576e-06
280,0.00051179,0.0242,-0.0445064,8.15094e-06,0.0407705,0.0407705,0.0407705,0.0407705,0.0407705,0.0407705,0.0407705,0.0407705,0.0407705,-0.79077,-0.0299507,-0.0604464,0.793643,0.0242,-0.0445064,8.15094e-06,0.00945257,-0.00312352,-0.00527301,-0.000120737,0.00025688,0.00477269,0.0407705,-0.162566,-1.18434,0.0261521,0.238402,-0.900201,0.097751,-0.147928,2.06034,-0.122471,0.0629611,-0.0239825,0.349339,-0.256857,0.0298637,-0.201419,0.00945257,-0.00312352,-0.00527301,-0.000120737,0.00025688,0.00477269,0,0,0,0,0,0,0,0,0,-0.00062459,-0.000487412,0.000121214,0.000995127,-0.000327015,0.000109071,-0.000334802,-0.000200831,0.000399545,-7.03475e-05,-3.64252e-05,0.000451338
281,0.00051179,0.0143657,0.00482368,-0.00667906,0.0676103,0.0676103,0.0676103,0.0676103,0.0676103,0.0676103,0.0676103,0.0676103,0.0676103,-0.665403,0.295499,-0.0323897,0.728787,0.0143657,0.00482368,-0.00667906,-0.0184914,0.0145255,-0.000221372,-0.012975,-0.00448787,-0.000763342,0.0676103,-0.671509,-1.53625,-0.397807,-2.26353,-0.974732,-0.0122543,-4.45574,2.49662,-0.332055,-0.367549,0.293349,1.09781,2.62626,-0.126946,3.36461,-0.0184914,0.0145255,-0.000221372,-0.012975,-0.00448787,-0.000763342,0,0,0,0,0,0,0,0,0,-0.000930972,-0.00210838,-0.0020738,0.0111138,-0.000539178,-0.00175902,-0.000383528,0.00609944,-0.000219852,-0.0112385,-0.00321083,0.000703075
282,0.00051179,0.000100177,0.00786079,-0.00681325,0.0720792,0.0720792,0.0720792,0.0720792,0.0720792,0.0720792,0.0720792,0.0720792,0.0720792,-0.822079,0.0736851,-0.586703,1.01265,0.000100177,0.00786079,-0.00681325,-0.00788591,0.00131876,0.00322654,0.0017147,-0.00159071,-0.000678714,0.0720792,0.000670806,0.00589142,-0.00128245,0.0130968,0.00044114,-0.00157253,0.0332036,-0.00643274,0.0152055,-0.00138897,-0.0040285,0.0031366,-0.0195686,-0.00139321,-0.0295269,-0.00788591,0.00131876,0.00322654,0.0017147,-0.00159071,-0.000678714,0,0,0,0,0,0,0,0,0,-0.000409104,-4.4883e-05,-4.83592e-05,-0.000312611,-0.000303531,4.87223e-05,7.57935e-05,-2.9604e-05,0.000360481,0.000329151,-2.65881e-05,-1.91671e-05
283,0.00051179,0.0113659,-0.00319143,-0.00116909,0.0744073,0.0744073,0.0744073,0.0744073,0.0744073,0.0744073,0.0744073,0.0744073,0.0744073,-0.925593,-0.598916,0.116447,1.10859,0.0113659,-0.00319143,-0.00116909,0.00204197,-0.0168514,0.00539503,0.000416964,0.00678155,-0.00533834,0.0744073,0.579864,3.71218,0.0297287,-0.33908,-0.467695,0.0445057,-0.492065,-3.25585,0.0704321,0.208967,0.00415896,-0.0860154,0.133304,-0.106315,0.57925,0.00204197,-0.0168514,0.00539503,0.000416964,0.00678155,-0.00533834,0,0,0,0,0,0,0,0,0,-0.000352852,0.00228518,-0.000329541,0.000854624,-0.000385487,0.000458313,-0.000270102,7.5031e-05,0.000398867,-0.000355616,3.43741e-05,-0.00118262
284,0.00051179,0.0112257,0.00419164,0.027553,0.103781,0.103781,0.103781,0.103781,0.103781,0.103781,0.103781,0.103781,0.103781,-0.853781,-0.283775,0.0484713,0.901011,0.0112257,0.00419164,0.027553,0.0115407,-0.00275882,0.0060745,-0.000568874,-0.00610076,-0.00232226,0.103781,0.284104,2.15034,-0.0749324,-1.03707,0.151252,0.186993,1.03764,-2.31281,0.0883442,-0.0538828,-0.0889085,0.107138,1.08676,-0.0897729,-1.17233,0.0115407,-0.00275882,0.0060745,-0.000568874,-0.00610076,-0.00232226,0,0,0,0,0,0,0,0,0,-0.000443257,0.00114208,-0.000419195,0.00199612,-0.000405246,-0.000357717,0.000102733,-0.000770871,0.000427209,-6.54376e-05,-0.000179222,-0.00079662
285,0.00051179,0.000584918,0.000754934,-0.0061315,0.0762093,0.0762093,0.0762093,0.0762093,0.0762093,0.0762093,0.0762093,0.0762093,0.0762093,-0.826209,0.641986,-0.798061,1.31593,0.000584918,0.000754934,-0.0061315,-0.0070148,-0.000520861,-4.79445e-06,0.000450293,0.00326515,-0.000917744,0.0762093,0.000412002,0.00705425,-0.000674777,0.00441443,0.000105702,7.40923e-05,-0.00183034,-0.00774487,0.00047533,-0.00113599,-0.000469442,0.000692561,-0.00403338,0.000666637,0.00726927,-0.0070148,-0.000520861,-4.79445e-06,0.000450293,0.00326515,-0.000917744,0,0,0,0,0,0,0,0,0,-0.000442751,-2.61737e-05,-0.000293736,-0.00044209,-0.000286067,0.000281779,1.14684e-05,0.000112177,0.000332624,0.000442783,-8.42204e-05,5.58479e-06
286,0.00051179,0.00414007,-0.0034252,0.00818567,0.0514933,0.0514933,0.0514933,0.0514933,0.0514933,0.0514933,0.0514933,0.0514933,0.0514933,-0.815745,0.0172323,0.948507,1.25116,0.00414007,-0.0034252,0.00818567,0.00275208,-3.00485e-06,0.000199404,-0.00371777,0.00110216,0.00809802,0.0514933,0.000954762,-0.0041891,-0.000286721,-0.000626957,0.000109503,0.000428896,-0.000518369,-6.04733e-05,-0.000968428,-2.46607e-05,-8.69697e-05,-0.000142969,0.00407682,-0.00102824,-0.00752433,0.00275208,-3.00485e-06,0.000199404,-0.00371777,0.00110216,0.00809802,0,0,0,0,0,0,0,0,0,-0.000707552,1.15068e-05,-1.22129e-05,-0.00025442,-0.00033387,9.31569e-06,-3.04584e-05,2.90826e-05,0.000337593,0.000260703,-1.89306e-05,2.83215e-05
287,0.00051179,-0.0026111,-0.00218717,-0.000299831,0.0762933,0.0762933,0.0762933,0.0762933,0.0762933,0.0762933,0.0762933,0.0762933,0.0762933,-0.923707,0.118387,-0.902444,1.29679,-0.0026111,-0.00218717,-0.000299831,-0.00679016,-0.00145942,0.00229403,-0.00717609,-0.00200897,-0.000121037,0.0762933,0.000647083,0.00146512,-0.000826143,0.00450621,0.000188705,0.00125852,-0.00371434,0.00095728,-0.00150132,0.000994577,-2.62614e-05,0.00064666,-0.00331362,-0.00133869,0.00336751,-0.00679016,-0.00145942,0.00229403,-0.00717609,-0.00200897,-0.000121037,0,0,0,0,0,0,0,0,0,-0.00030987,-1.19305e-05,-6.14925e-05,-0.00031049,-0.00030675,3.86369e-05,-2.46022e-05,1.79223e-05,0.000327863,0.000346016,-3.82747e-05,1.14862e-05
288,0.00051179,-0.00116344,-0.00276309,-0.00223129,0.0648634,0.0648634,0.0648634,0.0648634,0.0648634,0.0648634,0.0648634,0.0648634,0.0648634,-0.814863,0.0709202,0.514149,0.966117,-0.00116344,-0.00276309,-0.00223129,-0.000758698,-0.00134468,0.001472,0.000872935,-0.00119639,0.000802795,0.0648634,0.0010968,-0.028575,6.22943e-05,0.011289,-5.012e-05,-0.00209995,0.0330942,0.0297885,-0.00718109,-0.00665803,-0.000613085,-0.00144149,-0.00186785,0.00338435,-0.0294214,-0.000758698,-0.00134468,0.001472,0.000872935,-0.00119639,0.000802795,0,0,0,0,0,0,0,0,0,-0.00060951,3.74772e-06,5.61352e-05,-0.000231127,-0.000342721,-6.8959e-05,-2.94836e-05,4.58188e-06,0.000322856,0.000224847,-2.26767e-05,2.29929e-05
289,0.00051179,-0.0123995,0.0177754,-0.00698268,0.0271118,0.0271118,0.0271118,0.0271118,0.0271118,0.0271118,0.0271118,0.0271118,0.0271118,-0.972888,0.254285,0.0310428,1.00605,-0.0123995,0.0177754,-0.00698268,0.00818173,-0.00168226,-0.0156041,0.00218178,0.00860799,0.00270044,0.0271118,0.0743655,0.385987,0.00672222,0.194423,-0.0063787,0.105253,0.510072,-0.367209,0.0460676,-0.00905613,0.0329967,0.0844067,-0.203142,-0.0228877,-0.587496,0.00818173,-0.00168226,-0.0156041,0.00218178,0.00860799,0.00270044,0,0,0,0,0,0,0,0,0,-0.000543289,0.00028511,-3.60886e-05,0.000423609,-0.000308776,8.64882e-05,0.000113621,0.00015895,0.000383392,0.000472883,0.000257097,-0.000228562
290,0.00051179,0.00513845,-0.00483865,0.00510238,0.0422563,0.0422563,0.0422563,0.0422563,0.0422563,0.0422563,0.0422563,0.0422563,0.0422563,-0.792256,0.491254,0.909771,1.30257,0.00513845,-0.00483865,0.00510238,0.0102013,-0.00224441,-0.000739247,-5.99956e-05,0.00337679,0.00873143,0.0422563,0.000878289,-0.00495498,-0.000215046,-0.000424628,-4.79082e-05,0.00051745,8.26278e-05,-0.000135559,-0.00123726,-1.34308e-05,-0.000404409,-0.000197992,0.00527671,-0.000857327,-0.00498702,0.0102013,-0.00224441,-0.000739247,-5.99956e-05,0.00337679,0.00873143,0,0,0,0,0,0,0,0,0,-0.000650711,3.50249e-05,0.000197607,-0.0003295,-0.000350678,-0.000222202,-2.6859e-05,3.59315e-05,0.000339232,0.000327282,-6.20767e-06,1.89978e-05
291,0.00051179,0.00453322,0.0046609,-0.00626866,0.0114014,0.0114014,0.0114014,0.0114014,0.0114014,0.0114014,0.0114014,0.0114014,0.0114014,-0.761401,0.726445,-0.781597,1.31086,0.00453322,0.0046609,-0.00626866,-0.010162,-0.000576172,-0.00182727,0.000398542,0.00949985,0.0015135,0.0114014,0.000790074,-0.00477475,-0.000290863,0.00946988,-0.000196134,0.000129025,0.00694799,0.000437661,0.00294097,-0.00619907,-0.000682191,0.00258451,-0.00793171,0.00145439,-0.00326383,-0.010162,-0.000576172,-0.00182727,0.000398542,0.00949985,0.0015135,0,0,0,0,0,0,0,0,0,-0.000478528,-4.33235e-05,-0.000318292,-0.000491094,-0.000263566,0.000309622,2.02335e-05,0.000151735,0.000355564,0.000474112,-6.35582e-05,1.83754e-05
292,0.00051179,-0.00157817,0.00654751,-0.0110469,0.0327765,0.0327765,0.0327765,0.0327765,0.0327765,0.0327765,0.0327765,0.0327765,0.0327765,-0.782776,0.385085,0.395131,0.957684,-0.00157817,0.00654751,-0.0110469,0.00865739,-0.00642766,0.00728594,0.000147579,-0.0100555,0.00656093,0.0327765,0.000639156,-0.032217,-0.000455193,-0.018093,-0.00183463,-0.00443703,0.156877,0.0356298,-0.0213996,-0.0409416,-0.00114507,0.0205635,0.0524871,0.0153697,-0.166394,0.00865739,-0.00642766,0.00728594,0.000147579,-0.0100555,0.00656093,0,0,0,0,0,0,0,0,0,-0.000520729,3.49729e-05,0.000287436,-0.000411314,-0.000361109,-0.000356264,-0.00011777,-8.40019e-05,0.000318781,0.000439803,-2.80037e-05,9.81435e-05
293,0.00051179,-0.0213578,-0.013952,-0.00607705,0.0499256,0.0499256,0.0499256,0.0499256,0.0499256,0.0499256,0.0499256,0.0499256,0.0499256,-0.950074,-0.201435,0.101877,0.976523,-0.0213578,-0.013952,-0.00607705,0.00371325,0.000582644,-0.00387267,-0.00194958,-0.0129966,0.0218689,0.0499256,0.178346,0.969867,-0.0287152,-0.481913,0.131575,0.045305,-0.0151302,-1.08008,0.090465,-0.0300158,-0.0244653,0.0402365,0.52588,-0.0568021,-0.0190293,0.00371325,0.000582644,-0.00387267,-0.00194958,-0.0129966,0.0218689,0,0,0,0,0,0,0,0,0,-0.000511579,0.000638404,-0.000133047,0.000246643,-0.000391835,-0.000148278,0.000170683,-0.000185037,0.000367776,0.00016768,-0.000189582,-0.000446561
294,0.00051179,0.0104237,0.0218456,-0.00343284,0.0523605,0.0523605,0.0523605,0.0523605,0.0523605,0.0523605,0.0523605,0.0523605,0.0523605,-0.802361,0.704807,-0.601873,1.22588,0.0104237,0.0218456,-0.00343284,-0.0046812,-7.53738e-05,0.000320394,0.00386785,0.014559,-0.000201195,0.0523605,0.0011421,-0.00683061,-0.000822835,0.00725888,-0.000845273,-0.000387296,0.0162722,-0.00274785,0.00681303,-0.0266408,-0.00167968,0.00364245,-0.00246368,0.000341244,-0.0164818,-0.0046812,-7.53738e-05,0.000320394,0.00386785,0.014559,-0.000201195,0,0,0,0,0,0,0,0,0,-0.000556551,-2.60976e-05,-0.000421412,-0.000484154,-0.000248784,0.00041243,4.50023e-05,0.000183899,0.000338964,0.000483485,-5.5106e-05,-7.70186e-06
295,0.00051179,-0.0385921,0.0281138,-0.063731,0.0601468,0.0601468,0.0601468,0.0601468,0.0601468,0.0601468,0.0601468,0.0601468,0.0601468,-0.660382,-0.322659,-0.0398532,0.736072,-0.0385921,0.0281138,-0.063731,0.00291547,-0.0342784,-0.00612533,-0.0192041,0.0094986,0.000598371,0.0601468,-1.00127,-2.2468,0.524184,3.2541,-0.97355,-0.0378365,-4.16613,3.25894,-0.414233,0.319632,-0.293891,0.886118,-3.60184,-0.15953,3.34374,0.00291547,-0.0342784,-0.00612533,-0.0192041,0.0094986,0.000598371,0,0,0,0,0,0,0,0,0,-0.00108553,-0.00315632,0.00266673,0.0129609,-9.45274e-05,0.00223232,-0.000331738,-0.00630033,-0.000339411,-0.0134005,0.00345641,0.00104079
296,0.00051179,-0.0100933,-0.00697462,-0.0179655,0.0645416,0.0645416,0.0645416,0.0645416,0.0645416,0.0645416,0.0645416,0.0645416,0.0645416,-0.935458,-0.0222436,0.0959059,0.940625,-0.0100933,-0.00697462,-0.0179655,0.0038223,-0.00256938,-0.00334608,0.00211073,0.00174401,0.0213023,0.0645416,0.103269,0.526239,0.00374085,-0.101196,0.236713,0.0520576,-0.0204101,-0.752859,0.0858557,-0.0116458,-0.0132198,0.103431,0.119817,-0.0538579,-0.0650551,0.0038223,-0.00256938,-0.00334608,0.00211073,0.00174401,0.0213023,0,0,0,0,0,0,0,0,0,-0.000521861,0.000347953,-2.16467e-05,0.000214621,-0.000353063,3.33615e-05,0.00025233,-6.09582e-05,0.000351027,0.000272494,-5.37992e-05,-0.00035028
297,0.00051179,-0.000408794,0.00257193,-0.000459607,0.0687032,0.0687032,0.0687032,0.0687032,0.0687032,0.0687032,0.0687032,0.0687032,0.0687032,-0.818703,-0.831872,0.761231,1.39347,-0.000408794,0.00257193,-0.000459607,0.00122916,5.42663e-05,4.692e-05,8.15609e-05,-0.00165857,0.00343058,0.0687032,0.000663713,-0.00272439,0.000247248,-0.000222148,0.00160544,0.000127628,0.00227415,0.00152774,-0.000178533,-0.00387376,-0.0008834,-0.00264924,0.00152398,-0.000832569,0.000834701,0.00122916,5.42663e-05,4.692e-05,8.15609e-05,-0.00165857,0.00343058,0,0,0,0,0,0,0,0,0,-0.000478141,4.39445e-06,-0.000379562,-0.00043282,-0.000316167,0.000382577,-5.55475e-06,-3.38372e-05,0.000352047,0.000434565,8.41752e-06,7.92016e-06
298,0.00051179,-0.025118,0.0230243,-0.00376546,0.101517,0.101517,0.101517,0.101517,0.101517,0.101517,0.101517,0.101517,0.101517,-0.898483,-0.605567,-0.303499,1.12521,-0.025118,0.0230243,-0.00376546,-0.00167539,-0.00296157,0.00987973,-0.00353304,-0.00132755,0.00300179,0.101517,-0.118102,1.00783,-0.0053513,0.00449186,0.12586,-0.11013,0.178504,-1.10858,0.00167076,-0.100239,-0.00165577,0.140624,0.0727232,-0.0713758,-0.315362,-0.00167539,-0.00296157,0.00987973,-0.00353304,-0.00132755,0.00300179,0,0,0,0,0,0,0,0,0,-0.000669934,-0.00037964,0.000466853,-0.000983231,-0.000358695,-0.000549982,0.000209935,-7.95805e-05,0.000306681,-1.92689e-05,4.97474e-05,-0.000122624
299,0.00051179,0.331142,-0.0553968,0.0346658,0.027813,0.027813,0.027813,0.027813,0.027813,0.027813,0.027813,0.027813,0.027813,-0.6807,0.732442,0.072187,1.00251,0.331142,-0.0553968,0.0346658,-0.0240903,0.0239932,-0.0264642,0.130956,-0.0246845,0.00792682,0.027813,4.83149,29.0891,-0.155375,0.989019,-4.06141,-0.0759378,-3.36616,-25.3588,0.792275,-2.34327,0.00440265,-0.6361,1.40965,0.628264,3.96759,-0.0240903,0.0239932,-0.0264642,0.130956,-0.0246845,0.00792682,0,0,0,0,0,0,0,0,0,0.00122976,0.0166907,-0.000203802,0.0208056,-0.000493431,-0.00111002,-0.00273018,-0.00239476,-0.000536367,-0.0218296,0.00219195,-0.00416538
300,0.00051179,0.00355892,0.0207749,-0.00141305,0.0505949,0.0505949,0.0505949,0.0505949,0.0505949,0.0505949,0.0505949,0.0505949,0.0505949,-0.800595,0.691587,0.347288,1.11349,0.00355892,0.0207749,-0.00141305,-0.00623327,-0.00224179,0.00781034,-0.0180094,0.0110047,0.00763627,0.0505949,0.00226714,-0.165348,-0.00312196,0.0800666,-0.0182641,-0.012411,0.321882,0.180053,-0.0308774,0.0373595,0.0149517,0.0898918,-0.138201,0.0316121,-0.41036,-0.00623327,-0.00224179,0.00781034,-0.0180094,0.0110047,0.00763627,0,0,0,0,0,0,0,0,0,-0.000372849,-4.13307e-06,0.000505041,-0.000665562,-0.000407899,-0.000558679,-0.000228737,0.000147053,0.000306547,0.000619556,0.000112511,0.000211939
301,0.00051179,0.00238002,0.00150607,-0.00503235,0.0575379,0.0575379,0.0575379,0.0575379,0.0575379,0.0575379,0.0575379,0.0575379,0.0575379,-0.807538,0.786157,-0.832285,1.40102,0.00238002,0.00150607,-0.00503235,-0.00476346,-0.000804348,-0.000278775,-0.00057584,0.00300735,0.00103484,0.0575379,0.000936761,0.000906923,-0.000578247,0.00378868,-0.000217301,0.000421979,-0.00654985,-0.00306964,0.000267131,-0.00199574,-0.000224044,0.0022447,-0.00329901,0.000953611,0.0093375,-0.00476346,-0.000804348,-0.000278775,-0.00057584,0.00300735,0.00103484,0,0,0,0,0,0,0,0,0,-0.000470705,-1.66562e-05,-0.000304493,-0.000502602,-0.000284011,0.000290667,9.33712e-07,0.00012856,0.000327617,0.000504034,-0.000100727,1.24195e-05
302,0.00051179,-0.186992,0.0702856,0.843177,0.00197345,0.00197345,0.00197345,0.00197345,0.00197345,0.00197345,0.00197345,0.00197345,0.00197345,-0.742433,-0.969511,0.156934,1.23117,-0.186992,0.0702856,0.843177,-0.0685923,0.409224,0.367372,-0.355927,-0.488254,-0.413569,0.00197345,0.0191516,-5.83125,0.0204055,-1.65727,0.693789,-0.02535,3.82192,5.32445,0.00983725,-0.0651388,-0.0372445,-1.3744,1.65212,0.0287791,-3.29069,-0.0685923,0.409224,0.367372,-0.355927,-0.488254,-0.413569,0,0,0,0,0,0,0,0,0,0.000145562,0.000653166,-0.00196179,-0.00574111,0.000104075,0.00625808,-0.000830077,-0.00334748,0.000697039,0.00916133,-0.0019075,-0.00102358
303,0.00051179,-0.0279011,-0.0107536,-0.0163183,0.00808427,0.00808427,0.00808427,0.00808427,0.00808427,0.00808427,0.00808427,0.00808427,0.00808427,-0.991916,-0.589774,-0.55232,1.27937,-0.0279011,-0.0107536,-0.0163183,-0.00684876,-0.000303503,-0.00529135,-0.00830018,0.0103708,0.019319,0.00808427,-0.00996004,0.133973,-0.00321942,0.00734277,0.00651283,-0.0108921,0.074385,-0.112585,-0.00486396,-0.00943016,-0.0049561,0.00881085,0.012841,-0.00592741,-0.0668776,-0.00684876,-0.000303503,-0.00529135,-0.00830018,0.0103708,0.019319,0,0,0,0,0,0,0,0,0,-0.000523098,-6.49117e-05,0.000395627,-0.00034976,-0.000286514,-0.000430856,-4.66884e-05,-7.79639e-05,0.000301965,0.000187925,0.000132111,8.60905e-05
304,0.00051179,-0.00972321,-0.0079971,0.0137986,0.0302101,0.0302101,0.0302101,0.0302101,0.0302101,0.0302101,0.0302101,0.0302101,0.0302101,-0.96979,0.112263,0.506105,1.09965,-0.00972321,-0.0079971,0.0137986,-0.00272105,0.00174361,-0.000426404,0.00700784,-0.00507924,0.00315473,0.0302101,0.0105419,-0.0765921,-0.00084465,-0.0117509,0.00254183,-0.0111834,0.0606363,0.0837734,0.0188346,-0.0184443,0.000801542,-0.0147363,0.0381922,0.0121784,-0.0596986,-0.00272105,0.00174361,-0.000426404,0.00700784,-0.00507924,0.00315473,0,0,0,0,0,0,0,0,0,-0.000602357,-1.74299e-05,7.75209e-05,-0.000237195,-0.000332767,-6.85313e-05,7.26778e-05,-1.4894e-05,0.000293776,0.000121098,-2.7883e-05,2.01313e-05
305,0.00051179,0.00256541,0.00531637,0.00609119,0.0740995,0.0740995,0.0740995,0.0740995,0.0740995,0.0740995,0.0740995,0.0740995,0.0740995,-0.8241,-0.814077,0.612679,1.31043,0.00256541,0.00531637,0.00609119,0.000475017,-0.000578471,0.00016024,-0.00102961,-0.0060381,0.00430226,0.0740995,0.00138743,-0.00924025,0.000323959,-0.00154441,0.00180674,-0.000410281,0.00896192,0.0048681,-0.000533538,-0.00839426,-0.00126494,-0.00468475,0.0046223,-0.000312019,-0.0103684,0.000475017,-0.000578471,0.00016024,-0.00102961,-0.0060381,0.00430226,0,0,0,0,0,0,0,0,0,-0.000421748,4.36277e-06,-0.000471734,-0.000432296,-0.00031122,0.000469188,-1.27652e-05,-7.3214e-05,0.000348218,0.000429796,1.83637e-07,1.50017e-05
306,0.00051179,-0.0129977,0.00206961,-0.0224714,0.0143317,0.0143317,0.0143317,0.0143317,0.0143317,0.0143317,0.0143317,0.0143317,0.0143317,-0.985668,0.14826,-0.404076,1.07555,-0.0129977,0.00206961,-0.0224714,-0.00630482,0.000299015,-0.00307531,0.00876519,-0.00968763,0.000148643,0.0143317,-0.0247172,0.106609,0.00179232,-0.0255673,-0.0129317,-0.0250425,0.0185988,-0.0806793,-0.0260438,0.00764982,-0.00186761,-0.0258651,0.0158479,-0.00927416,0.0297377,-0.00630482,0.000299015,-0.00307531,0.00876519,-0.00968763,0.000148643,0,0,0,0,0,0,0,0,0,-0.000475712,-8.88491e-05,-8.13706e-05,-0.000407488,-0.000324124,0.000102284,-2.01322e-05,-0.000101643,0.000311702,0.000126311,-1.39093e-05,2.06334e-05
307,0.00051179,0.00162664,-0.000666692,-0.0073264,0.0751609,0.0751609,0.0751609,0.0751609,0.0751609,0.0751609,0.0751609,0.0751609,0.0751609,-0.825161,-0.692593,-0.893254,1.39946,0.00162664,-0.000666692,-0.0073264,-0.00477481,0.00153431,0.00142924,-0.00487537,-0.00262711,0.00149025,0.0751609,0.000618055,0.0020236,-0.000589572,0.00332945,0.000290192,0.00071336,-0.00273205,-0.00394043,-0.000750141,0.000165077,-0.000145609,7.48203e-05,-0.00282783,-0.00013354,0.00998363,-0.00477481,0.00153431,0.00142924,-0.00487537,-0.00262711,0.00149025,0,0,0,0,0,0,0,0,0,-0.000423841,-1.1062e-05,0.000289027,-0.000433125,-0.000310088,-0.000279579,-1.84058e-05,-0.000112651,0.000348583,0.000454551,8.49236e-05,1.65053e-05
308,0.00051179,0.00128958,0.000485985,-0.00383212,0.1092,0.1092,0.1092,0.1092,0.1092,0.1092,0.1092,0.1092,0.1092,-0.8908,0.248202,-0.609307,1.10742,0.00128958,0.000485985,-0.00383212,-0.00306587,-0.00135212,0.00168241,-0.00157275,-0.00262619,-0.00146858,0.1092,-0.000372455,0.0252437,-0.00225394,0.0159602,0.000909407,-0.0034378,0.0260717,-0.0274427,0.00863637,0.00341338,-0.00308244,0.00623884,-0.0198595,-0.00199018,-0.0284784,-0.00306587,-0.00135212,0.00168241,-0.00157275,-0.00262619,-0.00146858,0,0,0,0,0,0,0,0,0,-0.00041797,-1.73838e-05,-0.000157038,-0.000317639,-0.000299478,0.000120977,3.5126e-05,-1.30744e-06,0.000332132,0.000300085,-5.57789e-05,-1.74859e-05
309,0.00051179,0.00577509,0.00639047,-0.0104588,0.00865212,0.00865212,0.00865212,0.00865212,0.00865212,0.00865212,0.00865212,0.00865212,0.00865212,-0.991348,0.539101,0.374759,1.18905,0.00577509,0.00639047,-0.0104588,0.0158919,-0.00845589,-0.0080362,0.0155479,-0.0017479,-0.013146,0.00865212,0.061147,-0.287132,0.00149471,0.0242137,-0.0681602,-0.0444869,-0.0270175,0.349517,0.0178786,-0.101985,-0.0113426,0.0612396,0.0713809,0.0181406,-0.0237632,0.0158919,-0.00845589,-0.0080362,0.0155479,-0.0017479,-0.013146,0,0,0,0,0,0,0,0,0,-0.000472911,0.000251972,0.000393142,-0.000285256,-0.0002917,-0.000462754,3.39093e-05,-7.30475e-05,0.000285201,-0.000239976,-5.78579e-05,-0.00010825
310,0.00051179,0.0202278,-0.0132571,0.00595529,0.113544,0.113544,0.113544,0.113544,0.113544,0.113544,0.113544,0.113544,0.113544,-0.886456,0.11417,-0.109982,0.900519,0.0202278,-0.0132571,0.00595529,-0.00560991,0.00417785,-0.00494014,0.00267588,0.000198161,-0.00427467,0.113544,-0.157483,-0.85601,-0.0632139,-0.362863,-0.512084,0.0221413,-0.178552,1.34787,-0.0677836,-0.06328,-0.00284185,0.0713771,0.4394,0.0504791,0.10122,-0.00560991,0.00417785,-0.00494014,0.00267588,0.000198161,-0.00427467,0,0,0,0,0,0,0,0,0,-0.00061439,-0.00060547,-0.000299542,8.64601e-05,-0.000348592,-0.000290818,-0.000115543,-2.26087e-05,0.000368841,8.55514e-05,-3.8282e-06,0.000441018
311,0.00051179,0.00160315,0.00991633,0.00398145,0.0285842,0.0285842,0.0285842,0.0285842,0.0285842,0.0285842,0.0285842,0.0285842,0.0285842,-0.778584,-0.553039,0.590822,1.12299,0.00160315,0.00991633,0.00398145,-0.00517371,-0.0034772,0.00140926,-0.0125872,-0.00765036,0.000361217,0.0285842,0.000261441,-0.0106459,0.000321813,-0.00432003,-0.000160306,-0.00010379,0.01644,0.00920307,-0.00610657,-0.00553691,-0.000789847,0.00201628,-5.93782e-05,0.00058398,-0.0224378,-0.00517371,-0.0034772,0.00140926,-0.0125872,-0.00765036,0.000361217,0,0,0,0,0,0,0,0,0,-0.000524797,1.58582e-06,-0.000360711,-0.000289066,-0.000300998,0.000329157,-6.73219e-05,-4.4855e-05,0.000355236,0.000302121,-3.95471e-05,3.08732e-05
312,0.00051179,-0.0076775,0.00670422,-0.0287019,0.0293793,0.0293793,0.0293793,0.0293793,0.0293793,0.0293793,0.0293793,0.0293793,0.0293793,-0.970621,0.0156251,-0.303064,1.01695,-0.0076775,0.00670422,-0.0287019,-0.00882012,0.00192777,-0.00800068,0.00328433,-0.00389451,-0.00217864,0.0293793,-0.0360445,0.0979318,-0.00099992,0.0399927,-0.0567688,-0.0244241,-0.0598013,-0.0334855,-0.0319919,0.0234239,-0.0020996,-0.0419879,-0.0701208,-0.000557043,0.130491,-0.00882012,0.00192777,-0.00800068,0.00328433,-0.00389451,-0.00217864,0,0,0,0,0,0,0,0,0,-0.000512488,-0.000136276,-2.10005e-05,-0.000403549,-0.000324989,3.02789e-05,-5.54901e-05,-2.77027e-05,0.000320323,7.93016e-05,-3.22383e-05,7.43691e-05
313,0.00051179,-0.0405934,-0.0369807,0.0445608,0.00386976,0.00386976,0.00386976,0.00386976,0.00386976,0.00386976,0.00386976,0.00386976,0.00386976,-0.99613,-0.341904,0.107298,1.05862,-0.0405934,-0.0369807,0.0445608,-0.0194989,-0.0079918,0.0157443,0.0161044,-0.0213162,0.042505,0.00386976,0.248698,1.38809,-0.00947344,-0.504668,-0.0956371,0.0333317,0.112425,-1.25186,0.0848773,0.0438752,-0.0226035,-0.0373738,0.497774,-0.0378743,-0.119612,-0.0194989,-0.0079918,0.0157443,0.0161044,-0.0213162,0.042505,0,0,0,0,0,0,0,0,0,-0.000529088,0.000759675,-7.4835e-05,0.000294993,-0.000405366,-9.98174e-05,0.000118587,-0.000184658,0.000390843,0.000195767,-0.000254539,-0.000363168
314,0.00051179,-7.0408e-05,-0.00578462,0.000382543,0.0787458,0.0787458,0.0787458,0.0787458,0.0787458,0.0787458,0.0787458,0.0787458,0.0787458,-0.921254,0.670626,-0.527263,1.25557,-7.0408e-05,-0.00578462,0.000382543,-0.00164772,-0.00106095,-0.000624124,-0.00372987,-0.00517564,0.00108533,0.0787458,-0.00384746,0.0708963,-0.00108682,-0.00151217,-0.000290372,-0.00700732,0.0497585,-0.0705355,0.0100027,-0.0176416,0.00156969,0.0188958,0.0249384,-0.0059607,-0.0690369,-0.00164772,-0.00106095,-0.000624124,-0.00372987,-0.00517564,0.00108533,0,0,0,0,0,0,0,0,0,-0.000575311,-2.27478e-05,-0.000460329,-0.000470528,-0.000288511,0.000438851,3.60924e-05,0.000102005,0.000285871,0.000394213,-0.000138064,-1.96487e-05
315,0.00051179,-0.00137377,0.000630975,0.0212306,0.094384,0.094384,0.094384,0.094384,0.094384,0.094384,0.094384,0.094384,0.094384,-0.844384,-0.405511,-0.0477839,0.937927,-0.00137377,0.000630975,0.0212306,-0.0079859,0.00124301,0.00690467,0.00309902,-0.00349014,-0.00710821,0.094384,-0.472172,-4.14538,0.102168,1.14013,0.193319,0.289549,2.00052,3.95343,-0.0853134,0.0523801,-0.0959414,-0.203978,-1.19314,0.106862,-1.81777,-0.0079859,0.00124301,0.00690467,0.00309902,-0.00349014,-0.00710821,0,0,0,0,0,0,0,0,0,-0.000752136,-0.001867,0.000591548,0.0033404,-0.00032025,0.000442562,0.000122719,-0.000846014,0.000453033,-0.000375863,-0.000148301,0.00103256
316,0.00051179,-0.012867,0.0332949,0.00791717,0.0442364,0.0442364,0.0442364,0.0442364,0.0442364,0.0442364,0.0442364,0.0442364,0.0442364,-0.660661,0.905422,-0.0557636,1.12222,-0.012867,0.0332949,0.00791717,0.0153209,-0.00384805,-0.00849068,-0.0710867,-0.0169595,0.00309241,0.0442364,-3.77357,-19.0646,0.431063,0.0164032,-1.02271,0.744234,-3.70907,20.1002,-0.170306,2.91327,-0.105667,0.192676,-2.96297,-0.350337,3.50848,0.0153209,-0.00384805,-0.00849068,-0.0710867,-0.0169595,0.00309241,0,0,0,0,0,0,0,0,0,-0.00221296,-0.0137756,0.000193659,0.0258053,0.000376856,0.00407849,0.00380867,-0.0118174,9.31993e-05,-0.0184479,0.0105911,0.00327941
317,0.00051179,0.000116046,0.00087555,-0.00628808,0.0383295,0.0383295,0.0383295,0.0383295,0.0383295,0.0383295,0.0383295,0.0383295,0.0383295,-0.896724,0.961671,0.630899,1.45841,0.000116046,0.00087555,-0.00628808,-0.00525418,0.00141475,-0.00237781,-0.000132849,0.000145613,0.00906275,0.0383295,0.00150491,-0.00525653,1.4551e-05,0.000493483,0.00223605,-0.000549935,0.00972359,0.00290443,-0.000332402,0.00498293,-0.000625604,0.00235203,-0.00635196,-0.00118402,-0.00578754,-0.00525418,0.00141475,-0.00237781,-0.000132849,0.000145613,0.00906275,0,0,0,0,0,0,0,0,0,-0.00039503,-2.29743e-05,0.000408447,-0.000555946,-0.00033834,-0.000394154,-6.55419e-06,6.37623e-05,0.000276528,0.000526669,-6.85622e-05,3.51657e-05
318,0.00051179,-0.0157433,-0.00504875,-0.0393025,0.0371404,0.0371404,0.0371404,0.0371404,0.0371404,0.0371404,0.0371404,0.0371404,0.0371404,-0.700993,-0.126639,0.0628596,0.715108,-0.0157433,-0.00504875,-0.0393025,-0.0335931,0.0228183,0.0428466,-0.0628532,0.013574,0.0248826,0.0371404,0.420099,0.337576,-0.268063,-1.70998,2.31018,0.00709722,-2.00423,-2.63201,0.475741,-0.752136,-0.0774188,0.63908,2.46716,0.083381,1.40446,-0.0335931,0.0228183,0.0428466,-0.0628532,0.013574,0.0248826,0,0,0,0,0,0,0,0,0,-0.000356548,0.000885232,-0.00117093,0.00260556,-0.000475133,-0.00128151,0.00101714,-0.00147548,0.000320017,-0.00210613,0.000837029,-0.000505979
319,0.00051179,0.0647893,0.0402507,-0.0299844,0.0101978,0.0101978,0.0101978,0.0101978,0.0101978,0.0101978,0.0101978,0.0101978,0.0101978,-0.989802,0.789407,0.276501,1.29589,0.0647893,0.0402507,-0.0299844,0.000130864,-0.0133518,0.0229141,0.0206062,-0.0518954,-0.00160477,0.0101978,0.121888,0.076004,-0.0375424,0.130803,-0.0545843,-0.0274614,-0.291298,-0.086209,0.00901495,-0.0984074,0.00815274,0.0889159,-0.0726466,-0.00291746,0.232366,0.000130864,-0.0133518,0.0229141,0.0206062,-0.0518954,-0.00160477,0,0,0,0,0,0,0,0,0,-0.000317417,0.000440345,0.000710177,-7.90228e-05,-0.000286186,-0.00121912,-2.16458e-05,-9.42998e-05,0.00025741,3.35499e-05,-0.000343127,-0.000192363
320,0.00051179,-0.00127463,0.00071148,-0.0237755,0.022751,0.022751,0.022751,0.022751,0.022751,0.022751,0.022751,0.022751,0.022751,-0.977249,0.121427,-0.717474,1.21841,-0.00127463,0.00071148,-0.0237755,-0.00175406,0.00145836,0.00445249,-0.00870682,-0.000584762,0.000189613,0.022751,-0.00276731,0.0325545,-0.00315516,0.0168382,0.000146492,-0.00198132,0.0242524,-0.0314264,0.00118325,0.00234884,-0.00250628,0.00364357,-0.0198985,-0.00209447,-0.00412043,-0.00175406,0.00145836,0.00445249,-0.00870682,-0.000584762,0.000189613,0,0,0,0,0,0,0,0,0,-0.000367947,-6.51095e-06,-7.58515e-05,-0.000315033,-0.000307465,5.88834e-05,-2.15219e-05,4.14839e-06,0.000311427,0.000339745,-3.50588e-05,6.57162e-06
321,0.00051179,0.00419447,-0.00284253,0.00581193,0.0342393,0.0342393,0.0342393,0.0342393,0.0342393,0.0342393,0.0342393,0.0342393,0.0342393,-0.835665,0.05185,0.965761,1.27817,0.00419447,-0.00284253,0.00581193,0.000598262,-0.000982749,-0.000356201,-0.00241547,0.00073159,0.00675933,0.0342393,0.000966623,-0.00326616,-0.000330739,-0.000893481,8.06069e-05,0.000420719,0.000740103,-0.00100892,-0.000944616,-0.00016409,-2.82153e-05,-0.000190173,0.0039001,-0.00113985,-0.00636186,0.000598262,-0.000982749,-0.000356201,-0.00241547,0.00073159,0.00675933,0,0,0,0,0,0,0,0,0,-0.000712365,3.41179e-06,-6.02256e-07,-0.000262596,-0.000334227,-1.25326e-05,-2.12131e-05,2.55062e-05,0.000332169,0.000263242,-1.84724e-05,2.36848e-05
322,0.00051179,0.0642128,0.0249038,0.0236842,0.0831792,0.0831792,0.0831792,0.0831792,0.0831792,0.0831792,0.0831792,0.0831792,0.0831792,-0.833179,-0.830905,0.0856904,1.1798,0.0642128,0.0249038,0.0236842,0.00670829,0.00612232,0.00986979,0.0116004,0.00218838,0.0137739,0.0831792,0.937128,10.036,0.158687,1.42527,-0.281775,0.329827,-0.331329,-9.81843,0.0342118,0.352861,0.0292066,0.124351,-1.80303,-0.329189,0.183294,0.00670829,0.00612232,0.00986979,0.0116004,0.00218838,0.0137739,0,0,0,0,0,0,0,0,0,-9.50024e-05,0.00394122,0.000177335,0.00310964,-0.000216657,0.00147076,-0.0005489,0.00113229,0.000487387,0.000287327,-0.000818339,-0.00235504
323,0.00051179,0.0039944,-0.00326187,0.0106984,0.0281957,0.0281957,0.0281957,0.0281957,0.0281957,0.0281957,0.0281957,0.0281957,0.0281957,-0.778196,0.0216831,-0.542393,0.948815,0.0039944,-0.00326187,0.0106984,-0.0112654,0.00197905,0.00469694,0.00169124,-0.00138818,0.00570659,0.0281957,0.000362709,-0.00134829,-0.00050246,0.0183432,0.000405392,-0.000515927,0.0220656,-0.0030515,0.0242088,0.00225982,-0.00524554,0.00157779,-0.0173411,-0.00352972,-0.0343417,-0.0112654,0.00197905,0.00469694,0.00169124,-0.00138818,0.00570659,0,0,0,0,0,0,0,0,0,-0.000423975,-7.43298e-05,-1.78314e-05,-0.000321089,-0.000308091,3.25973e-05,0.000109684,-4.3161e-05,0.000376292,0.0003629,-2.31762e-05,-8.93211e-06
324,0.00051179,0.00931032,-0.00227962,0.00428198,0.0174264,0.0174264,0.0174264,0.0174264,0.0174264,0.0174264,0.0174264,0.0174264,0.0174264,-0.767426,-0.125799,0.808491,1.1218,0.00931032,-0.00227962,0.00428198,0.00596807,-0.00198295,0.00252494,-0.0100929,-0.00166147,0.00927512,0.0174264,8.17925e-05,-0.0105227,8.25003e-05,-0.00157682,0.000760475,0.000173215,0.00217561,0.000451929,-0.000796216,0.000176755,-0.000673744,-4.80457e-05,0.00367968,0.000197906,-0.00640954,0.00596807,-0.00198295,0.00252494,-0.0100929,-0.00166147,0.00927512,0,0,0,0,0,0,0,0,0,-0.000666887,2.49026e-05,-7.88852e-05,-0.000231888,-0.000329131,5.98806e-05,-5.97922e-05,1.06742e-05,0.000348695,0.000258869,-3.40264e-05,4.20185e-05
325,0.00051179,0.00098571,-0.00149751,-0.00209219,0.0830489,0.0830489,0.0830489,0.0830489,0.0830489,0.0830489,0.0830489,0.0830489,0.0830489,-0.833049,0.858817,0.815467,1.44794,0.00098571,-0.00149751,-0.00209219,0.00352105,-0.00118186,-0.000984859,0.00192165,0.00277315,0.00486495,0.0830489,0.000422552,3.81544e-05,0.000325687,-0.00202702,-0.00053579,0.000335831,0.000376272,-0.000488075,-0.000315981,0.00191824,-0.000726317,0.000183916,0.00160629,-0.00099761,0.001532,0.00352105,-0.00118186,-0.000984859,0.00192165,0.00277315,0.00486495,0,0,0,0,0,0,0,0,0,-0.000524692,8.85268e-06,0.000298252,-0.000472335,-0.000348652,-0.000306814,-2.83695e-06,5.72399e-05,0.000315107,0.000465845,-3.67716e-05,8.47137e-06
326,0.00051179,0.00781322,0.00130339,-0.00733023,0.0200488,0.0200488,0.0200488,0.0200488,0.0200488,0.0200488,0.0200488,0.0200488,0.0200488,-0.770049,-0.755156,-0.910148,1.41124,0.00781322,0.00130339,-0.00733023,0.00111308,0.00489553,-0.000715554,-0.00147374,-0.006729,0.00319914,0.0200488,0.000635639,-0.0069478,-0.000374131,0.00384162,0.000353788,0.000424329,-0.00485478,-0.00121921,0.000287501,4.72158e-05,2.5929e-05,-0.000178948,-0.00519222,0.000595827,0.012364,0.00111308,0.00489553,-0.000715554,-0.00147374,-0.006729,0.00319914,0,0,0,0,0,0,0,0,0,-0.000435069,3.71579e-06,0.000288202,-0.00045321,-0.000321621,-0.000242988,-1.0959e-05,-0.000140186,0.000368245,0.000450298,7.31553e-05,1.3947e-05
327,0.00051179,0.0152214,-0.00301939,-0.00750944,0.0327916,0.0327916,0.0327916,0.0327916,0.0327916,0.0327916,0.0327916,0.0327916,0.0327916,-0.967208,-0.260541,-0.329441,1.05447,0.0152214,-0.00301939,-0.00750944,-0.00858228,-0.00554832,-0.00327147,-0.00230996,-0.0124702,0.00333327,0.0327916,-0.0663466,0.327181,0.0135196,-0.0736746,-0.0427407,-0.0499552,0.0278887,-0.299662,-0.0311553,-0.00980418,0.0115338,-0.0572429,0.0864981,-0.0160664,0.0368636,-0.00858228,-0.00554832,-0.00327147,-0.00230996,-0.0124702,0.00333327,0,0,0,0,0,0,0,0,0,-0.000518121,-0.000234882,0.000134584,-0.000439583,-0.000311458,-5.48715e-05,-2.75642e-05,1.8063e-05,0.000327878,-9.26841e-05,-2.74266e-05,7.60967e-05
328,0.00051179,0.0181253,0.0120775,-0.00403571,0.0225066,0.0225066,0.0225066,0.0225066,0.0225066,0.0225066,0.0225066,0.0225066,0.0225066,-0.772507,-0.0663062,0.120492,0.784654,0.0181253,0.0120775,-0.00403571,0.00537977,-0.00694562,0.0625924,-0.0297871,-0.0116423,-0.0201015,0.0225066,0.261566,1.03261,-0.0613556,-0.311589,0.949396,-0.0924649,-1.96317,-2.00014,0.282552,-0.0690219,0.0241005,-0.441001,0.368534,0.0355669,2.40821,0.00537977,-0.00694562,0.0625924,-0.0297871,-0.0116423,-0.0201015,0,0,0,0,0,0,0,0,0,-0.000413261,0.000717218,-0.000384531,-0.00041583,-0.000385547,-0.000298481,0.000646313,4.78819e-05,0.000349231,0.000117104,7.67004e-05,-0.000540184
329,0.00051179,0.00767547,-0.000409044,-0.00585179,0.107878,0.107878,0.107878,0.107878,0.107878,0.107878,0.107878,0.107878,0.107878,-0.857878,0.0186372,0.372895,0.935603,0.00767547,-0.000409044,-0.00585179,-5.87658e-05,0.00185482,-0.00137678,0.00256181,-0.00118781,-0.000190328,0.107878,0.0044191,-0.101971,0.000833757,-0.0239816,0.00733772,-0.0120443,0.108782,0.0869578,0.0213383,-0.0192505,-0.000553259,-0.028053,0.0436412,0.0136554,-0.0748774,-5.87658e-05,0.00185482,-0.00137678,0.00256181,-0.00118781,-0.000190328,0,0,0,0,0,0,0,0,0,-0.000571899,-2.63431e-05,2.96468e-05,-0.000345353,-0.000342691,-2.76104e-06,7.13557e-05,2.05061e-05,0.000312403,0.000211142,-3.79168e-05,1.91806e-05
330,0.00051179,-4.65754e-05,-0.00132984,0.00317638,0.088839,0.088839,0.088839,0.088839,0.088839,0.088839,0.088839,0.088839,0.088839,-0.911161,-0.198275,0.85881,1.26771,-4.65754e-05,-0.00132984,0.00317638,-0.00467588,-0.00159062,-0.00140252,0.00520563,-0.000513645,0.00409073,0.088839,0.00109895,-0.00553273,0.000161357,-0.00392322,8.41729e-05,-7.94604e-06,0.00678189,0.00549514,-1.92095e-05,0.000912652,-0.000351171,-7.41645e-05,0.00434041,-0.000514101,-0.00988411,-0.00467588,-0.00159062,-0.00140252,0.00520563,-0.000513645,0.00409073,0,0,0,0,0,0,0,0,0,-0.000672139,-2.38686e-05,-0.000112312,-0.000244094,-0.000339234,9.80193e-05,1.99481e-05,1.40959e-05,0.000318222,0.00022999,-2.2744e-05,1.18992e-05
331,0.00051179,0.0151395,0.00814036,0.011062,0.0634932,0.0634932,0.0634932,0.0634932,0.0634932,0.0634932,0.0634932,0.0634932,0.0634932,-0.813493,0.329331,-0.449191,0.985902,0.0151395,0.00814036,0.011062,-0.00831219,0.00416705,0.00135869,0.000330883,-0.00304881,-0.000568232,0.0634932,-0.00145029,0.030423,7.03409e-05,-0.0072955,0.00208616,-0.00394693,0.103622,-0.0476487,0.0301477,0.0080874,-0.00461937,0.013744,-0.00893227,-0.0110295,-0.128428,-0.00831219,0.00416705,0.00135869,0.000330883,-0.00304881,-0.000568232,0,0,0,0,0,0,0,0,0,-0.000493102,-5.93336e-05,-0.000227746,-0.000432624,-0.000279689,0.00027012,0.000141872,-1.6401e-05,0.000346869,0.000406741,-6.02808e-05,-6.85098e-05
332,0.00051179,0.203938,0.0298595,0.12964,0.0230193,0.0230193,0.0230193,0.0230193,0.0230193,0.0230193,0.0230193,0.0230193,0.0230193,-0.726981,0.145079,0.0751851,0.745119,0.203938,0.0298595,0.12964,-0.0776657,-0.0688118,0.0874436,-0.0948128,-0.00869951,0.0367177,0.0230193,0.551156,3.9747,0.311836,3.78488,2.07657,0.00180074,-1.70592,-6.25522,0.491393,0.758626,0.0341844,0.232881,-4.57337,0.0783992,1.3434,-0.0776657,-0.0688118,0.0874436,-0.0948128,-0.00869951,0.0367177,0,0,0,0,0,0,0,0,0,-0.000333443,0.0012307,0.00124538,0.00202021,-0.000214601,0.00118486,0.000846148,0.000888628,0.000329807,-0.00112776,-0.000633779,-0.000561171
333,0.00051179,-0.0259207,0.020338,-0.00977331,0.0434281,0.0434281,0.0434281,0.0434281,0.0434281,0.0434281,0.0434281,0.0434281,0.0434281,-0.956572,-0.650579,-0.220907,1.17774,-0.0259207,0.020338,-0.00977331,-0.00208723,0.00368185,0.0322758,-0.0134693,0.0109513,0.0059851,0.0434281,-0.315057,-0.554847,-0.0334074,0.129941,0.329791,-0.120043,-0.868973,0.250977,-0.0385384,-0.169793,-0.00163253,0.13118,0.0195148,-0.00569209,0.747566,-0.00208723,0.00368185,0.0322758,-0.0134693,0.0109513,0.0059851,0,0,0,0,0,0,0,0,0,-0.000714824,-0.00116011,0.000468063,-0.000462386,-0.000336671,-0.000765319,0.000165568,-7.44709e-05,0.000332952,-0.000415285,0.000167658,0.000427072
334,0.00051179,-0.0562848,-0.0121395,0.00744349,0.0110654,0.0110654,0.0110654,0.0110654,0.0110654,0.0110654,0.0110654,0.0110654,0.0110654,-0.988935,0.658114,-0.143376,1.19652,-0.0562848,-0.0121395,0.00744349,0.0420271,-0.00604103,0.00671128,-0.0476865,-0.0198129,-0.025229,0.0110654,-0.394807,-2.30998,0.0204255,-0.0166728,0.454154,-0.000391815,-0.530679,1.91211,-0.037263,0.173954,-0.0187642,-0.0310054,-0.145142,0.0581207,0.554241,0.0420271,-0.00604103,0.00671128,-0.0476865,-0.0198129,-0.025229,0,0,0,0,0,0,0,0,0,-0.000696108,-0.00129678,-0.000389974,8.78385e-05,-0.00029921,0.000533819,4.23734e-05,-7.93464e-05,0.000356987,-2.46438e-05,-0.000306424,0.00063158
335,0.00051179,-0.00707668,0.000742353,-0.00772701,0.012665,0.012665,0.012665,0.012665,0.012665,0.012665,0.012665,0.012665,0.012665,-0.873748,-0.18778,-0.987335,1.33174,-0.00707668,0.000742353,-0.00772701,-0.00408385,-0.000722773,0.00150115,-0.0042533,-0.00149231,0.00083098,0.012665,0.00190492,-0.00940326,-0.000147901,0.00151108,0.000245003,0.000498965,0.00270005,0.0162349,-0.00125839,0.000235224,7.42627e-05,-0.000197136,-0.00248866,-0.00138754,0.0052241,-0.00408385,-0.000722773,0.00150115,-0.0042533,-0.00149231,0.00083098,0,0,0,0,0,0,0,0,0,-0.000288613,-1.37866e-06,9.67602e-05,-0.000346481,-0.000302548,-0.000105467,-1.80425e-05,-1.11548e-05,0.000350691,0.000366482,-3.02562e-06,6.73315e-06
336,0.00051179,0.0175205,0.000463128,-0.00257708,0.0815654,0.0815654,0.0815654,0.0815654,0.0815654,0.0815654,0.0815654,0.0815654,0.0815654,-0.918435,0.286232,0.31233,1.01144,0.0175205,0.000463128,-0.00257708,0.00630589,-0.000794794,0.00158761,0.00403079,0.00107457,0.00736511,0.0815654,0.0561499,-0.403085,0.014655,-0.0986503,0.0175323,-0.0483701,-0.00282934,0.368032,0.0414089,-0.11456,-0.0248221,-0.0563364,0.212747,0.0266894,0.0617428,0.00630589,-0.000794794,0.00158761,0.00403079,0.00107457,0.00736511,0,0,0,0,0,0,0,0,0,-0.00051222,0.000148491,0.000239851,-0.000457666,-0.000311965,-0.000101249,6.34101e-05,-0.000174987,0.000287972,-1.01589e-05,-6.24883e-05,6.48404e-06
337,0.00051179,0.00330497,-0.00115092,0.00336216,0.00427864,0.00427864,0.00427864,0.00427864,0.00427864,0.00427864,0.00427864,0.00427864,0.00427864,-0.995721,0.0605468,-0.512648,1.12158,0.00330497,-0.00115092,0.00336216,0.000283919,0.000517378,0.00413901,0.0119596,-0.00628872,0.00408978,0.00427864,-0.0095924,0.112623,0.000533588,-0.0441119,-0.00206323,-0.0120168,0.059724,-0.113865,-0.0213875,0.00796229,-0.00276246,-0.00593806,0.0373005,-0.00495629,-0.0571481,0.000283919,0.000517378,0.00413901,0.0119596,-0.00628872,0.00408978,0,0,0,0,0,0,0,0,0,-0.00042925,-2.39237e-05,-3.42951e-05,-0.000344099,-0.000312442,4.48047e-05,-2.45208e-05,-7.10222e-05,0.000309065,0.000265321,-1.94896e-05,1.82861e-05
338,0.00051179,0.000292473,0.0109677,-0.00425772,0.0434347,0.0434347,0.0434347,0.0434347,0.0434347,0.0434347,0.0434347,0.0434347,0.0434347,-0.956565,-0.28255,-0.543317,1.1358,0.000292473,0.0109677,-0.00425772,-0.00548274,0.00206338,-0.000432814,-0.00769843,0.0012743,0.00055107,0.0434347,-0.00552915,0.0737928,-0.00183242,-0.0100161,0.000982283,-0.00906589,0.0478218,-0.0750675,-0.000290798,-0.00760066,-0.00522513,-0.000860905,0.00664904,-0.00474465,-0.0427031,-0.00548274,0.00206338,-0.000432814,-0.00769843,0.0012743,0.00055107,0,0,0,0,0,0,0,0,0,-0.000441201,-2.82964e-05,0.00016327,-0.000327292,-0.000306839,-0.000160961,-1.3183e-05,-4.5507e-05,0.000324987,0.000232305,5.99871e-06,5.79524e-06
339,0.00051179,0.0136912,0.00390476,-0.0105618,0.0458086,0.0458086,0.0458086,0.0458086,0.0458086,0.0458086,0.0458086,0.0458086,0.0458086,-0.954191,-0.633563,0.537244,1.26511,0.0136912,0.00390476,-0.0105618,0.00323013,0.000173945,-0.00574026,0.00608292,0.0075999,-0.00171518,0.0458086,0.00676884,-0.06476,0.00135864,-0.0136485,-0.0150208,-0.00843174,0.0397124,0.0660896,0.00604833,0.0145887,-0.000649857,0.0242736,-0.00484501,0.00873966,-0.0534242,0.00323013,0.000173945,-0.00574026,0.00608292,0.0075999,-0.00171518,0,0,0,0,0,0,0,0,0,-0.000475898,1.63548e-05,-0.000428718,-0.000329091,-0.000369215,0.000444043,2.70163e-05,2.19607e-05,0.000307508,0.000187371,4.75397e-05,1.48233e-06
340,0.00051179,-0.0195177,0.00592108,-0.0379183,0.0358845,0.0358845,0.0358845,0.0358845,0.0358845,0.0358845,0.0358845,0.0358845,0.0358845,-0.964115,-0.948765,0.0428202,1.35333,-0.0195177,0.00592108,-0.0379183,0.000560291,-0.00476083,-0.0169869,0.00826567,0.00814022,0.0126674,0.0358845,0.105473,1.1834,0.0186045,0.165371,0.337095,0.526672,1.31316,-1.50097,0.00496708,0.0473227,0.0277189,0.312853,-0.218615,-0.0745587,-1.58809,0.000560291,-0.00476083,-0.0169869,0.00826567,0.00814022,0.0126674,0,0,0,0,0,0,0,0,0,-0.000425026,0.000463964,-0.000545829,0.00268468,-0.000365192,0.000684266,-3.75476e-08,0.000292998,0.000365242,0.00241217,6.55936e-05,-0.000375658
341,0.00051179,0.0398886,0.00675224,-0.00221646,0.0652568,0.0652568,0.0652568,0.0652568,0.0652568,0.0652568,0.0652568,0.0652568,0.0652568,-0.815257,-0.11375,-0.171764,0.840884,0.0398886,0.00675224,-0.00221646,-0.0131963,0.0133816,0.00680322,0.0184591,0.0132997,0.0011051,0.0652568,-0.147367,0.394134,0.0304426,-0.18356,-0.344337,-0.0936005,-0.751412,-0.0896854,-0.137161,-7.86373e-05,0.0159939,-0.272986,0.176886,-0.0515984,1.02661,-0.0131963,0.0133816,0.00680322,0.0184591,0.0132997,0.0011051,0,0,0,0,0,0,0,0,0,-0.000636339,-0.000422325,0.000389797,-0.000884892,-0.000303859,4.84449e-05,-0.000213019,0.000206471,0.000348441,1.69188e-05,8.64654e-05,0.000128023
342,0.00051179,0.0210381,0.0033418,0.0228019,0.0489331,0.0489331,0.0489331,0.0489331,0.0489331,0.0489331,0.0489331,0.0489331,0.0489331,-0.951067,0.23107,0.192377,0.997462,0.0210381,0.0033418,0.0228019,0.0197834,-0.0100489,-0.00222979,0.00258725,0.0158339,0.00571765,0.0489331,0.150393,0.464146,0.0444896,0.14207,0.0729775,-0.0312021,-0.463064,-0.558161,0.0853752,-0.035,-0.0231331,-0.0649055,-0.110412,-0.0334303,0.505167,0.0197834,-0.0100489,-0.00222979,0.00258725,0.0158339,0.00571765,0,0,0,0,0,0,0,0,0,-0.000493243,0.000585005,0.000191286,-0.000172614,-0.000297988,0.000153121,0.000173936,-0.000106958,0.000316687,-0.000161705,3.39658e-05,-0.00040444
343,0.00051179,-0.00484517,-0.00292685,0.00396013,0.0114467,0.0114467,0.0114467,0.0114467,0.0114467,0.0114467,0.0114467,0.0114467,0.0114467,-0.988553,-0.791918,0.854152,1.52773,-0.00484517,-0.00292685,0.00396013,-0.00486128,0.00197577,-0.00125092,0.00428602,0.0116149,0.00587138,0.0114467,0.00158729,-0.0101968,0.000244804,-0.00342458,0.00217404,6.74687e-05,0.0114598,0.0128679,0.000840871,0.000493846,-0.000498427,-0.00248637,0.00585758,-0.00235741,-0.0129336,-0.00486128,0.00197577,-0.00125092,0.00428602,0.0116149,0.00587138,0,0,0,0,0,0,0,0,0,-0.000529326,-2.25625e-05,-0.000323668,-0.000406374,-0.000373954,0.000345874,1.94419e-05,4.07772e-05,0.000285581,0.00039454,7.03877e-05,1.13773e-05
344,0.00051179,0.0124533,0.000123993,-0.000763327,0.124313,0.124313,0.124313,0.124313,0.124313,0.124313,0.124313,0.124313,0.124313,-0.874313,0.402207,0.341657,1.02124,0.0124533,0.000123993,-0.000763327,0.00283217,-0.000187334,-0.00533983,0.00343895,-0.00741234,0.0109088,0.124313,0.0293924,-0.499105,0.00641216,-0.0978208,-0.0107818,-0.0407725,0.322375,0.497433,0.00595499,-0.131558,-0.0182345,0.00196043,0.229255,0.0397298,-0.323573,0.00283217,-0.000187334,-0.00533983,0.00343895,-0.00741234,0.0109088,0,0,0,0,0,0,0,0,0,-0.000489838,5.46722e-05,0.000325956,-0.000569946,-0.000325197,-0.000263707,-5.94808e-05,-0.000175676,0.000282772,0.000108822,-8.07922e-05,0.000146743
345,0.00051179,0.00705408,0.00784632,0.0245861,0.0548614,0.0548614,0.0548614,0.0548614,0.0548614,0.0548614,0.0548614,0.0548614,0.0548614,-0.804861,-0.65677,0.501769,1.15366,0.00705408,0.00784632,0.0245861,-9.56282e-06,-0.000421058,0.00337563,-0.0112495,-0.0122388,0.00539123,0.0548614,0.00109889,-0.0252026,0.000407048,-0.00803104,0.000242343,-0.00184963,0.0374588,0.0179062,-0.0066853,-0.0115938,-0.0019837,0.00627812,0.0117785,0.00417335,-0.0683231,-9.56282e-06,-0.000421058,0.00337563,-0.0112495,-0.0122388,0.00539123,0,0,0,0,0,0,0,0,0,-0.000452936,1.38476e-05,-0.000469353,-0.000357147,-0.000298375,0.000469212,-8.12728e-05,-8.94091e-05,0.000347108,0.000372407,-5.28163e-05,5.62239e-05
346,0.00051179,0.00967354,0.0124208,0.00914311,0.0482423,0.0482423,0.0482423,0.0482423,0.0482423,0.0482423,0.0482423,0.0482423,0.0482423,-0.951758,0.37274,0.174442,1.03692,0.00967354,0.0124208,0.00914311,0.0210433,-0.00868095,0.00886134,0.0224896,0.0204835,0.0102276,0.0482423,0.294214,1.09045,0.0467263,0.31766,-0.136321,-0.0564894,-0.689385,-0.963807,0.0787033,-0.0786808,-0.0253171,-0.0143547,-0.2514,-0.0442658,0.694596,0.0210433,-0.00868095,0.00886134,0.0224896,0.0204835,0.0102276,0,0,0,0,0,0,0,0,0,-0.000456795,0.00113504,0.000298352,-4.50223e-05,-0.000278914,8.21019e-05,6.47203e-05,-8.57742e-05,0.000331499,-0.000431259,3.74374e-05,-0.000611435
347,0.00051179,0.00272989,-0.0240673,-0.00806165,0.0907665,0.0907665,0.0907665,0.0907665,0.0907665,0.0907665,0.0907665,0.0907665,0.0907665,-0.840766,-0.609962,-0.0518809,1.04002,0.00272989,-0.0240673,-0.00806165,-0.00866267,0.00267047,0.0109561,-0.00164996,-0.00387337,-0.00862277,0.0907665,-0.733684,-7.17119,0.0199237,0.587311,0.659563,0.417004,2.75713,6.5089,-0.0770585,-0.243293,-0.00465696,-0.563838,-0.319951,0.16524,-2.18523,-0.00866267,0.00267047,0.0109561,-0.00164996,-0.00387337,-0.00862277,0,0,0,0,0,0,0,0,0,-0.00086607,-0.00294507,0.000207464,0.00473981,-0.000368441,1.8478e-05,0.000373116,6.97684e-05,0.000473224,-0.000460201,-0.000155072,0.00154975
348,0.00051179,-0.00177923,0.0118798,0.00621147,0.018307,0.018307,0.018307,0.018307,0.018307,0.018307,0.018307,0.018307,0.018307,-0.981693,0.774415,0.693318,1.42973,-0.00177923,0.0118798,0.00621147,0.00161277,-0.00582062,0.00154611,0.00573133,-0.0119724,0.00395747,0.018307,0.00173111,-0.0225391,0.000245579,0.00964665,0.00132673,-0.00233146,0.0254922,0.0229916,0.00156821,-0.0162172,-0.0013127,-0.000709172,-0.00530928,0.0022547,-0.0309945,0.00161277,-0.00582062,0.00154611,0.00573133,-0.0119724,0.00395747,0,0,0,0,0,0,0,0,0,-0.000496753,-2.72936e-06,0.000342433,-0.000412964,-0.000303024,-0.000398183,1.70489e-05,-1.48514e-05,0.000253186,0.000405111,-0.000118,1.16121e-05
349,0.00051179,-0.00449318,-0.00327877,-0.00547015,0.0894441,0.0894441,0.0894441,0.0894441,0.0894441,0.0894441,0.0894441,0.0894441,0.0894441,-0.839444,-0.526135,-0.679216,1.20117,-0.00449318,-0.00327877,-0.00547015,-0.00583804,0.00162813,0.00426562,0.00159429,-0.00579626,-0.00306753,0.0894441,0.000459984,0.0129116,-0.00101339,0.00953025,-0.00109948,-0.00110437,0.018007,-0.0073189,0.00460653,0.00683295,-0.00140081,-0.003249,-0.0130844,0.00023124,-0.00928781,-0.00583804,0.00162813,0.00426562,0.00159429,-0.00579626,-0.00306753,0,0,0,0,0,0,0,0,0,-0.000458486,-2.4567e-05,0.000310163,-0.000358347,-0.000328505,-0.000304016,3.33274e-05,-0.000114549,0.000353903,0.000389959,4.25785e-05,-1.18581e-05
350,0.00051179,-0.063926,-0.02658,-0.044436,0.0435738,0.0435738,0.0435738,0.0435738,0.0435738,0.0435738,0.0435738,0.0435738,0.0435738,-0.955883,-0.956426,-0.151116,1.36062,-0.063926,-0.02658,-0.044436,0.0160022,0.0181091,-0.0174172,-0.00628302,0.00311363,0.0164607,0.0435738,-0.194974,-1.82312,-0.048691,-0.178572,-0.842966,0.250963,-0.711872,2.73002,-0.00357928,-0.0572457,0.00330982,0.0338467,0.262398,0.143503,0.722461,0.0160022,0.0181091,-0.0174172,-0.00628302,0.00311363,0.0164607,0,0,0,0,0,0,0,0,0,-0.000885732,-0.000861547,0.00115529,0.000869533,-0.000392968,-0.00146111,-1.59998e-05,-0.000229111,0.00028713,0.00146592,0.000293346,0.000833131
351,0.00051179,-0.00109491,-8.94475e-05,0.00469141,0.0921332,0.0921332,0.0921332,0.0921332,0.0921332,0.0921332,0.0921332,0.0921332,0.0921332,-0.907867,0.16162,0.858459,1.25988,-0.00109491,-8.94475e-05,0.00469141,-0.00161103,-0.00101156,-0.00158595,0.00482779,-0.000489095,0.00457801,0.0921332,0.000849023,-0.00356027,0.000280328,-0.00425143,0.000401584,7.88644e-05,0.00573079,0.0042536,-3.87896e-05,-0.000961383,-0.000514022,-0.000612448,0.00530226,-0.000542287,-0.00980975,-0.00161103,-0.00101156,-0.00158595,0.00482779,-0.000489095,0.00457801,0,0,0,0,0,0,0,0,0,-0.000680409,-1.31132e-05,6.33325e-05,-0.000259796,-0.000333482,-7.06448e-05,1.46419e-05,1.28288e-05,0.000309937,0.000244725,-2.286e-05,1.08755e-05
352,0.00051179,0.000486358,3.70108e-05,0.00269749,0.081466,0.081466,0.081466,0.081466,0.081466,0.081466,0.081466,0.081466,0.081466,-0.918534,-0.493372,0.847935,1.34392,0.000486358,3.70108e-05,0.00269749,-0.00319968,-0.00151905,-0.00212213,0.00536167,0.00190744,0.00400235,0.081466,0.000838295,-0.00464813,0.000340588,-0.00421422,-0.000530686,0.000242125,0.00432268,0.00469246,-0.000244366,0.000367937,-0.000438822,0.000513277,0.00380927,-0.0010044,-0.00753345,-0.00319968,-0.00151905,-0.00212213,0.00536167,0.00190744,0.00400235,0,0,0,0,0,0,0,0,0,-0.00061553,-1.8446e-05,-0.000245663,-0.000293704,-0.000346297,0.000233878,1.89474e-05,1.06412e-05,0.000319451,0.000274904,4.04501e-06,8.35067e-06
353,0.00051179,0.00567418,-0.00778192,-0.0143759,0.0509598,0.0509598,0.0509598,0.0509598,0.0509598,0.0509598,0.0509598,0.0509598,0.0509598,-0.94904,0.944199,0.325364,1.3777,0.00567418,-0.00778192,-0.0143759,-0.0104084,-0.00489952,-0.0304735,-0.00138656,-0.0118319,0.00749046,0.0509598,-0.0123674,0.23703,-0.0119239,0.0107647,0.171122,0.0409502,-0.107725,-0.413827,0.00144045,0.0407858,0.0102003,-0.113157,-0.0437686,-0.0158261,0.235258,-0.0104084,-0.00489952,-0.0304735,-0.00138656,-0.0118319,0.00749046,0,0,0,0,0,0,0,0,0,-0.000205338,-7.80431e-05,0.000856771,-0.000641432,-0.000330711,-0.00102501,3.6105e-05,0.000151354,0.000231206,0.000746199,-0.00016767,-5.84254e-06
354,0.00051179,-0.000473983,0.000233252,-0.00803743,0.0651446,0.0651446,0.0651446,0.0651446,0.0651446,0.0651446,0.0651446,0.0651446,0.0651446,-0.817916,-0.658186,-0.934855,1.40576,-0.000473983,0.000233252,-0.00803743,-0.00577182,0.000942601,0.000612691,-0.00664976,-0.00283054,0.00160994,0.0651446,0.000879124,-0.00223302,-0.000436626,0.00345956,0.000466841,0.000785533,-0.00302746,0.00224017,-0.00063421,-9.22776e-05,-5.58235e-06,0.000160914,-0.00360053,-0.000516642,0.010904,-0.00577182,0.000942601,0.000612691,-0.00664976,-0.00283054,0.00160994,0,0,0,0,0,0,0,0,0,-0.000396512,-1.1675e-05,0.000269663,-0.000426509,-0.00030818,-0.000264603,-2.36313e-05,-0.000106262,0.000353813,0.000440491,7.79006e-05,1.8255e-05
355,0.00051179,-0.00241326,0.00942998,-0.0165185,0.0295826,0.0295826,0.0295826,0.0295826,0.0295826,0.0295826,0.0295826,0.0295826,0.0295826,-0.970417,0.586613,0.429282,1.21248,-0.00241326,0.00942998,-0.0165185,0.00513211,-0.00702551,-0.00749212,0.0147131,-0.00606302,-0.00958115,0.0295826,0.0269774,-0.184513,-0.0015493,0.00794654,-0.0492796,-0.0273159,0.02914,0.236206,-0.000961171,-0.0600244,-0.00565025,0.0681864,0.0426479,0.0179082,-0.080808,0.00513211,-0.00702551,-0.00749212,0.0147131,-0.00606302,-0.00958115,0,0,0,0,0,0,0,0,0,-0.000467412,9.80222e-05,0.000417587,-0.000343552,-0.000304246,-0.000503335,6.23469e-06,-4.71204e-05,0.000276424,-4.528e-06,-7.00123e-05,-2.089e-05
356,0.00051179,-0.00403279,0.00425412,-0.0120917,0.08376,0.08376,0.08376,0.08376,0.08376,0.08376,0.08376,0.08376,0.08376,-0.83376,0.776918,-0.368148,1.19762,-0.00403279,0.00425412,-0.0120917,-0.0118291,-0.00489098,0.0037276,-0.00034484,0.0202637,-0.000927189,0.08376,-0.00693391,0.164508,0.0032757,-0.0630536,-0.010778,-0.0107916,0.164048,-0.149697,0.0259546,-0.12168,0.0172261,0.0241414,0.180479,-0.0172408,-0.176098,-0.0118291,-0.00489098,0.0037276,-0.00034484,0.0202637,-0.000927189,0,0,0,0,0,0,0,0,0,-0.000728548,-8.07521e-05,-0.000622469,-0.000744133,-0.000199134,0.000606317,0.000141112,0.000363657,0.000311442,0.000673493,1.12406e-05,-7.7777e-05
357,0.00051179,0.0105139,-0.00420463,0.137045,0.00076049,0.00076049,0.00076049,0.00076049,0.00076049,0.00076049,0.00076049,0.00076049,0.00076049,-0.75076,0.0707773,-0.191442,0.778011,0.0105139,-0.00420463,0.137045,0.00104033,-0.00775756,0.00981026,0.0618633,-0.0389074,-0.0608145,0.00076049,-0.000842616,1.03594,-0.00291383,0.481121,-0.0298034,-0.00449289,2.49504,-1.01665,-0.136932,0.165756,-0.0283844,-0.172676,-0.642672,-0.0537453,-2.45941,0.00104033,-0.00775756,0.00981026,0.0618633,-0.0389074,-0.0608145,0,0,0,0,0,0,0,0,0,-0.00061243,0.000219562,-0.000251876,-0.00105356,-0.000342036,0.000145162,-0.000156768,-0.000492526,0.000381447,0.00110674,-0.000180393,-0.000354225
358,0.00051179,0.0125474,-0.0124308,-0.0275363,0.0169706,0.0169706,0.0169706,0.0169706,0.0169706,0.0169706,0.0169706,0.0169706,0.0169706,-0.983029,-0.664142,0.38922,1.24857,0.0125474,-0.0124308,-0.0275363,0.00706244,0.00354347,-0.00234488,0.011945,0.0216386,-0.0163311,0.0169706,0.0451249,-0.247132,0.0109188,-0.0721143,-0.0594128,-0.0332955,0.030094,0.293998,0.00758432,0.0510896,-0.00340714,0.0757369,0.0334556,0.0168866,-0.0782945,0.00706244,0.00354347,-0.00234488,0.011945,0.0216386,-0.0163311,0,0,0,0,0,0,0,0,0,-0.000419758,0.000177546,-0.000537162,-0.000237667,-0.000391448,0.000681785,1.42557e-05,6.95291e-05,0.000307232,-0.000118737,0.000112785,-8.06134e-05
359,0.00051179,-0.00203884,0.00738507,-0.00655138,0.0704883,0.0704883,0.0704883,0.0704883,0.0704883,0.0704883,0.0704883,0.0704883,0.0704883,-0.820488,0.0483718,-0.610422,1.02379,-0.00203884,0.00738507,-0.00655138,-0.00825327,0.00109385,0.00288698,0.00264423,-0.00133791,-0.00140418,0.0704883,0.000662103,0.00672054,-0.00131749,0.0136505,0.000466186,-0.0013762,0.028878,-0.00514789,0.013425,-0.001312,-0.00364224,0.00283989,-0.0197236,-0.000743039,-0.0251665,-0.00825327,0.00109385,0.00288698,0.00264423,-0.00133791,-0.00140418,0,0,0,0,0,0,0,0,0,-0.000400715,-4.52607e-05,-3.31742e-05,-0.000311102,-0.000304604,3.09378e-05,7.30413e-05,-2.66145e-05,0.000362039,0.00032621,-2.31871e-05,-1.80409e-05
360,0.00051179,0.00126815,-0.00777857,-0.0198476,0.123676,0.123676,0.123676,0.123676,0.123676,0.123676,0.123676,0.123676,0.123676,-0.873676,-0.410785,0.213438,0.988741,0.00126815,-0.00777857,-0.0198476,-0.00848226,-0.00654759,0.0144376,0.00108549,-0.00717714,0.00441664,0.123676,0.280078,-0.839048,-0.032219,0.0423502,-0.0584823,-0.178678,-0.909902,0.896262,0.0614451,0.121801,0.0504768,0.0105313,-0.156373,0.0589878,0.919219,-0.00848226,-0.00654759,0.0144376,0.00108549,-0.00717714,0.00441664,0,0,0,0,0,0,0,0,0,-0.00038185,0.000899289,-0.000560964,-0.00119724,-0.000396485,0.000173297,-0.000146036,0.000322954,0.000294037,-0.000445166,0.000110043,-0.000141667
361,0.00051179,0.00154683,-0.00197405,0.00450101,0.0737321,0.0737321,0.0737321,0.0737321,0.0737321,0.0737321,0.0737321,0.0737321,0.0737321,-0.870995,0.250442,0.926268,1.29589,0.00154683,-0.00197405,0.00450101,-0.0019041,-0.00109287,-0.00166617,0.00172284,-4.88244e-05,0.00477388,0.0737321,0.00112309,-0.00212094,-0.000149302,-0.00200781,-0.000136239,0.0004219,0.00222827,0.000710347,-0.000454681,-0.000720494,-0.000236648,-0.00033469,0.00470235,-0.00100795,-0.00639459,-0.0019041,-0.00109287,-0.00166617,0.00172284,-4.88244e-05,0.00477388,0,0,0,0,0,0,0,0,0,-0.00069233,-8.81248e-06,9.31948e-05,-0.000287802,-0.000335002,-0.000105617,1.4334e-06,1.82751e-05,0.000318408,0.000275359,-2.11298e-05,1.39223e-05
362,0.00051179,0.00697088,-0.0117959,-0.0142431,0.00671067,0.00671067,0.00671067,0.00671067,0.00671067,0.00671067,0.00671067,0.00671067,0.00671067,-0.993289,-0.203876,-0.403523,1.09134,0.00697088,-0.0117959,-0.0142431,-0.0036464,-0.00279,-0.00649457,0.00890556,-0.0142126,0.00945399,0.00671067,-0.0284994,0.125931,0.0066855,-0.0753868,-0.018008,-0.0270168,0.0333817,-0.114894,-0.0293072,0.00252526,0.0052708,-0.0217628,0.0846575,-0.0096504,0.00262418,-0.0036464,-0.00279,-0.00649457,0.00890556,-0.0142126,0.00945399,0,0,0,0,0,0,0,0,0,-0.000478484,-9.98707e-05,8.67992e-05,-0.00037473,-0.000310952,-4.78442e-05,-4.115e-05,-4.42992e-05,0.000321627,3.96167e-05,-4.51186e-05,5.98763e-05
363,0.00051179,0.0282205,0.0166505,-0.0118388,0.0439354,0.0439354,0.0439354,0.0439354,0.0439354,0.0439354,0.0439354,0.0439354,0.0439354,-0.956065,-0.105183,0.254689,0.994982,0.0282205,0.0166505,-0.0118388,0.00352037,-0.00555021,-0.0025689,-0.00573246,-0.00102369,0.0104596,0.0439354,0.0607135,-0.0870988,0.0016262,-0.0025234,0.0991019,-0.0232038,-0.202606,-0.0402236,0.0739428,0.000880482,0.00506205,-0.0966364,-0.0150076,-0.0102766,0.311082,0.00352037,-0.00555021,-0.0025689,-0.00573246,-0.00102369,0.0104596,0,0,0,0,0,0,0,0,0,-0.000529669,0.000168138,-5.30854e-05,-0.000280025,-0.000370348,1.38453e-05,0.00018802,9.84712e-05,0.000306316,2.22981e-05,-5.80875e-05,-0.000152117
364,0.00051179,0.00318881,0.00240416,-0.00501613,0.0963436,0.0963436,0.0963436,0.0963436,0.0963436,0.0963436,0.0963436,0.0963436,0.0963436,-0.846344,0.0744867,-0.828171,1.18647,0.00318881,0.00240416,-0.00501613,-0.00847907,-0.000109285,0.00182064,0.00208422,-0.00139533,-0.00306555,0.0963436,6.31958e-05,0.00701685,-0.000874452,0.00431917,0.0002111,0.000516828,-0.00289445,-0.0104168,0.000536097,-0.000788633,-0.000543887,0.000974604,-0.0059347,0.000207424,0.00693598,-0.00847907,-0.000109285,0.00182064,0.00208422,-0.00139533,-0.00306555,0,0,0,0,0,0,0,0,0,-0.000332475,-3.20944e-05,-4.45424e-05,-0.000311959,-0.000303024,3.4705e-05,2.30866e-05,8.17163e-06,0.000356048,0.000335333,-2.75638e-05,-4.30563e-06
365,0.00051179,-0.00335601,0.00238403,0.00989204,0.0201577,0.0201577,0.0201577,0.0201577,0.0201577,0.0201577,0.0201577,0.0201577,0.0201577,-0.979842,0.777006,0.83138,1.50167,-0.00335601,0.00238403,0.00989204,-0.00505969,-0.00433747,-0.00145869,0.00464408,-0.00952664,0.00640743,0.0201577,0.000868693,-0.00543184,0.000974424,-0.00620401,-0.00177427,0.000121683,0.00798931,0.0105621,9.63919e-06,-0.00293377,-0.000837956,-0.000946605,0.00675375,-0.00204424,-0.0169347,-0.00505969,-0.00433747,-0.00145869,0.00464408,-0.00952664,0.00640743,0,0,0,0,0,0,0,0,0,-0.000553474,-2.65233e-05,0.00027026,-0.000423947,-0.000304932,-0.00030389,1.77002e-05,-3.45978e-06,0.000255615,0.000410577,-0.000100186,1.62476e-05
366,0.00051179,-0.000743585,0.00566093,0.00105446,0.0615817,0.0615817,0.0615817,0.0615817,0.0615817,0.0615817,0.0615817,0.0615817,0.0615817,-0.938418,0.808745,0.575471,1.36597,-0.000743585,0.00566093,0.00105446,0.000271008,-0.00186443,-0.000269599,0.0045223,-0.00747603,0.00718724,0.0615817,0.00358112,-0.0305651,-0.0021947,0.02002,0.00705405,-0.00380343,0.0224389,0.0242546,-0.000628697,-0.00403169,0.000152429,-0.00152775,-0.0216493,0.0035609,-0.0219656,0.000271008,-0.00186443,-0.000269599,0.0045223,-0.00747603,0.00718724,0,0,0,0,0,0,0,0,0,-0.000431277,-2.07843e-06,0.000432186,-0.000486043,-0.00032183,-0.000472777,-1.87108e-06,2.45611e-05,0.000265263,0.000445313,-9.77972e-05,3.24016e-05
367,0.00051179,0.0077861,-0.0427645,0.00454048,0.0524868,0.0524868,0.0524868,0.0524868,0.0524868,0.0524868,0.0524868,0.0524868,0.0524868,-0.947513,0.581828,0.306886,1.15347,0.0077861,-0.0427645,0.00454048,0.00399047,-0.00849204,0.0012366,0.00797691,-0.00173162,-0.00311051,0.0524868,0.121676,-0.573881,-0.000206225,0.028184,-0.133304,-0.0796272,-0.134194,0.6994,0.0148634,-0.129958,-0.0153467,0.12449,0.144539,0.0323276,0.0051638,0.00399047,-0.00849204,0.0012366,0.00797691,-0.00173162,-0.00311051,0,0,0,0,0,0,0,0,0,-0.000416346,0.000423265,0.000438094,-0.000472011,-0.000308329,-0.000525077,-9.08639e-05,-0.000112319,0.000276364,-0.000311896,-5.84641e-05,-5.89799e-05
368,0.00051179,-0.00558043,0.0170892,0.02673,0.0399005,0.0399005,0.0399005,0.0399005,0.0399005,0.0399005,0.0399005,0.0399005,0.0399005,-0.9601,0.30694,0.134604,1.01692,-0.00558043,0.0170892,0.02673,0.00585035,-0.0125371,0.0134351,0.0126278,0.0252784,0.0236715,0.0399005,0.26788,1.28371,0.0546831,0.437211,-0.0217653,0.00401561,-0.236578,-1.25637,0.0915401,-0.00417005,-0.00712003,-0.0173279,-0.45013,-0.0572571,0.227176,0.00585035,-0.0125371,0.0134351,0.0126278,0.0252784,0.0236715,0,0,0,0,0,0,0,0,0,-0.000487424,0.000971368,0.000196785,0.00028114,-0.000286097,0.000224675,0.000123556,5.48263e-05,0.000352412,-0.000106633,0.000126757,-0.000565212
369,0.00051179,-0.208877,-0.0687276,0.0717273,0.0114299,0.0114299,0.0114299,0.0114299,0.0114299,0.0114299,0.0114299,0.0114299,0.0114299,-0.76143,-0.277467,0.130539,0.820856,-0.208877,-0.0687276,0.0717273,0.0396973,-0.0885581,-0.0320234,0.00302374,0.0234511,-0.00415948,0.0114299,0.606804,-1.15102,-0.188453,0.44486,0.395762,-0.344959,-3.63284,0.964137,0.317849,-0.0625633,0.125455,-0.269188,-0.313569,0.269065,3.8303,0.0396973,-0.0885581,-0.0320234,0.00302374,0.0234511,-0.00415948,0,0,0,0,0,0,0,0,0,-0.000203557,0.00181064,-0.00157045,-0.00285225,-0.000491256,-0.00119966,0.000182502,0.00101011,0.000279099,-0.000917572,0.000478948,-9.73327e-05
370,0.00051179,0.00486207,-0.0148234,0.0517159,0.0373213,0.0373213,0.0373213,0.0373213,0.0373213,0.0373213,0.0373213,0.0373213,0.0373213,-0.962679,-0.396699,-0.0562999,1.04273,0.00486207,-0.0148234,0.0517159,0.0149819,-0.00596656,-0.0049598,-0.00125846,-0.00568686,-0.0014969,0.0373213,-0.197036,-1.63977,0.039799,0.300109,0.154678,0.107509,0.70852,1.48023,-0.032361,-0.00953684,-0.0581613,-0.11799,-0.275749,0.0449693,-0.642247,0.0149819,-0.00596656,-0.0049598,-0.00125846,-0.00568686,-0.0014969,0,0,0,0,0,0,0,0,0,-0.000617422,-0.000711578,0.000230628,0.000723797,-0.000344837,0.000107696,3.05968e-05,-0.000393885,0.000443526,0.000301691,-0.000244597,0.000416056
371,0.00051179,0.00231759,-0.000666356,-0.000762688,0.0233367,0.0233367,0.0233367,0.0233367,0.0233367,0.0233367,0.0233367,0.0233367,0.0233367,-0.934306,0.587381,0.976663,1.47371,0.00231759,-0.000666356,-0.000762688,-0.00109197,-0.000997491,-0.00224928,0.00754128,-0.00238608,0.00620411,0.0233367,0.00111915,0.000601612,-0.000273637,-0.00204349,-0.000201742,0.000396483,1.15138e-05,-0.00271746,-0.000249343,-0.000535226,-6.68122e-05,-0.000173616,0.00324507,-0.00170402,0.00092479,-0.00109197,-0.000997491,-0.00224928,0.00754128,-0.00238608,0.00620411,0,0,0,0,0,0,0,0,0,-0.000654437,-1.35016e-05,0.000198098,-0.00035556,-0.000318492,-0.000210809,2.28221e-05,2.64795e-05,0.000288099,0.000337032,-5.10084e-05,8.8629e-06
372,0.00051179,-0.0246716,-0.0107887,0.00240287,0.0395722,0.0395722,0.0395722,0.0395722,0.0395722,0.0395722,0.0395722,0.0395722,0.0395722,-0.960428,-0.697848,-0.0826267,1.19006,-0.0246716,-0.0107887,0.00240287,0.0222855,0.00124091,-0.00293116,-0.0235947,-0.00744889,-0.00528762,0.0395722,-0.35382,-2.75312,-0.0475357,-0.0628506,0.302338,0.161203,0.502682,2.47545,-0.0104318,-0.15084,0.0192119,-0.226614,0.224479,0.0856627,-0.278471,0.0222855,0.00124091,-0.00293116,-0.0235947,-0.00744889,-0.00528762,0,0,0,0,0,0,0,0,0,-0.000701018,-0.00132861,9.18494e-05,0.00113226,-0.000361199,-0.000554797,0.000158928,-0.00017531,0.000420265,0.000450465,0.000292941,0.000730936
373,0.00051179,-0.0193341,-0.00789833,-0.0208175,0.089072,0.089072,0.089072,0.089072,0.089072,0.089072,0.089072,0.089072,0.089072,-0.910928,0.76912,-0.182826,1.20613,-0.0193341,-0.00789833,-0.0208175,-0.00312649,-0.00210192,0.022283,0.00942841,-0.0215905,-0.00600274,0.089072,-0.41421,-1.49291,0.0638452,0.185355,0.371382,-0.0842356,-1.74838,1.14086,-0.0331995,0.204831,0.0147096,0.15785,-0.382288,0.0503751,1.61134,-0.00312649,-0.00210192,0.022283,0.00942841,-0.0215905,-0.00600274,0,0,0,0,0,0,0,0,0,-0.000861309,-0.00162891,-0.000370252,-0.000474202,-0.000210786,0.000987685,0.000338916,-2.41227e-05,0.000292808,-0.000145324,-4.46867e-05,0.000679633
374,0.00051179,-0.00242995,0.00479175,0.00432797,0.0713566,0.0713566,0.0713566,0.0713566,0.0713566,0.0713566,0.0713566,0.0713566,0.0713566,-0.928643,0.834274,0.567551,1.37131,-0.00242995,0.00479175,0.00432797,-0.000961652,-0.000749037,-0.000153434,0.00338673,-0.00544813,0.00808069,0.0713566,0.00312354,-0.0238225,-0.00205087,0.0180485,0.00884219,-0.00321875,0.0212049,0.0174102,-0.00110521,0.000177914,0.000269826,-0.00324724,-0.0230182,0.00294345,-0.0222856,-0.000961652,-0.000749037,-0.000153434,0.00338673,-0.00544813,0.00808069,0,0,0,0,0,0,0,0,0,-0.000416026,-7.03776e-06,0.000447292,-0.000511208,-0.000326836,-0.000475291,-6.43954e-06,3.80382e-05,0.000267133,0.000477487,-8.98212e-05,3.72735e-05
375,0.00051179,-0.00268679,0.00235519,0.00252746,0.0644783,0.0644783,0.0644783,0.0644783,0.0644783,0.0644783,0.0644783,0.0644783,0.0644783,-0.935522,0.641512,0.85602,1.42109,-0.00268679,0.00235519,0.00252746,-0.0030853,-0.00177411,-0.00165587,0.00499198,-0.00402899,0.00437876,0.0644783,0.000792459,-0.00104683,0.000554688,-0.00663139,9.84102e-06,0.000339389,0.00178758,0.00372378,-0.000234352,-0.000550895,-0.000534774,0.000654169,0.0048271,-0.00159838,-0.00496921,-0.0030853,-0.00177411,-0.00165587,0.00499198,-0.00402899,0.00437876,0,0,0,0,0,0,0,0,0,-0.000598826,-1.75163e-05,0.00024284,-0.000369585,-0.000319624,-0.000255034,1.7736e-05,1.59407e-05,0.000283614,0.000356421,-6.15782e-05,7.84976e-06
376,0.00051179,3.8147e-06,-0.0157676,0.0434953,0.0176042,0.0176042,0.0176042,0.0176042,0.0176042,0.0176042,0.0176042,0.0176042,0.0176042,-0.982396,0.482148,-0.0697938,1.09656,3.8147e-06,-0.0157676,0.0434953,0.0199559,-0.00165833,-0.000288863,-0.0182528,0.0043364,-0.0135835,0.0176042,-0.249545,-1.983,-0.0289655,-0.248984,0.248074,0.0911034,0.553818,1.73492,-0.023244,0.0723536,0.0105916,-0.199108,0.192398,0.0599522,-0.398205,0.0199559,-0.00165833,-0.000288863,-0.0182528,0.0043364,-0.0135835,0,0,0,0,0,0,0,0,0,-0.000634775,-0.000888655,-0.000218081,0.000554933,-0.000308836,-8.81575e-05,5.18047e-05,5.76304e-05,0.000422552,0.000353212,9.165e-05,0.000491132
377,0.00051179,0.0430346,0.0246842,-0.00475597,0.0502005,0.0502005,0.0502005,0.0502005,0.0502005,0.0502005,0.0502005,0.0502005,0.0502005,-0.6998,0.801531,-0.0440487,1.06495,0.0430346,0.0246842,-0.00475597,0.0131104,-0.0599976,0.0248193,-0.0646538,-0.0131115,-0.00867128,0.0502005,-2.43969,-17.321,0.211818,0.678255,1.81746,0.749159,-8.30065,15.4605,-0.311318,2.156,-0.101095,-0.809743,-2.85893,-0.40096,9.11515,0.0131104,-0.0599976,0.0248193,-0.0646538,-0.0131115,-0.00867128,0,0,0,0,0,0,0,0,0,-0.00156239,-0.00842655,0.000364945,0.0201743,-9.81633e-05,0.00115326,0.00182651,-0.00443075,6.23614e-05,-0.0124345,0.00328869,0.00165821
378,0.00051179,-0.00675392,0.00434101,0.0324764,0.0446929,0.0446929,0.0446929,0.0446929,0.0446929,0.0446929,0.0446929,0.0446929,0.0446929,-0.794693,-0.593203,-0.0874838,0.99553,-0.00675392,0.00434101,0.0324764,-0.00251663,-0.0330342,0.0893726,-0.0282156,-0.00554099,-0.0173692,0.0446929,-1.66126,-18.0126,0.115761,1.54277,1.53542,0.0157533,-4.33927,16.484,-0.23408,-0.538098,0.0229721,-0.0524038,-1.00901,0.0946682,4.35919,-0.00251663,-0.0330342,0.0893726,-0.0282156,-0.00554099,-0.0173692,0,0,0,0,0,0,0,0,0,-0.00122527,-0.00618567,0.000575153,0.00320192,-0.000358457,0.000252116,0.000821718,0.000305209,0.000336945,-0.00215066,-0.000130898,0.00251969
379,0.00051179,0.00273318,0.00324872,-0.00023409,0.0909053,0.0909053,0.0909053,0.0909053,0.0909053,0.0909053,0.0909053,0.0909053,0.0909053,-0.840905,-0.192913,0.585825,1.04285,0.00273318,0.00324872,-0.00023409,-0.00185656,0.000602544,-0.000106096,-0.00144114,0.000519537,0.00446706,0.0909053,0.0013134,-0.0186588,1.7114e-05,0.00605458,-8.03416e-05,-0.00115703,0.0223811,0.016006,-0.00297482,-0.00360126,-0.000601818,0.000422576,-0.00570204,0.00252323,-0.0225696,-0.00185656,0.000602544,-0.000106096,-0.00144114,0.000519537,0.00446706,0,0,0,0,0,0,0,0,0,-0.000612698,-5.05943e-06,-0.000137641,-0.000205683,-0.0003353,0.000143838,-2.44235e-05,3.04462e-05,0.000327401,0.000193052,-3.1269e-05,3.26078e-05
380,0.00051179,-0.00703214,-0.00325978,0.00874951,0.0876788,0.0876788,0.0876788,0.0876788,0.0876788,0.0876788,0.0876788,0.0876788,0.0876788,-0.837679,0.539692,0.550051,1.13821,-0.00703214,-0.00325978,0.00874951,-0.00236267,-0.00116732,0.00049982,-0.00530867,0.00330199,0.0113303,0.0876788,0.00150181,-0.0319689,-0.000604264,0.0142407,-0.000903706,-0.00256613,0.0458634,0.0399047,-0.005111,0.0014903,-7.81352e-05,0.00402958,-0.0124713,0.00404313,-0.0586425,-0.00236267,-0.00116732,0.00049982,-0.00530867,0.00330199,0.0113303,0,0,0,0,0,0,0,0,0,-0.000526749,-9.02685e-06,0.000342214,-0.000327688,-0.00035804,-0.00035993,-5.68209e-05,3.63938e-05,0.000311323,0.000307025,-4.15522e-06,7.21444e-05
381,0.00051179,0.0151689,-0.000462271,0.0197971,0.0852441,0.0852441,0.0852441,0.0852441,0.0852441,0.0852441,0.0852441,0.0852441,0.0852441,-0.914756,0.025769,-0.0806029,0.918662,0.0151689,-0.000462271,0.0197971,-0.00647184,-0.00205305,0.000242274,0.00855593,-0.00213274,-0.00254705,0.0852441,-0.0847859,-0.481995,-0.00961839,-0.0824482,-0.406362,0.0540141,0.145217,0.873188,-0.0409331,0.00881216,-0.00701508,0.197903,0.0740983,0.0307127,-0.362918,-0.00647184,-0.00205305,0.000242274,0.00855593,-0.00213274,-0.00254705,0,0,0,0,0,0,0,0,0,-0.000581622,-0.000346132,-5.34872e-05,0.000253674,-0.000337416,-6.32272e-05,-5.1729e-05,-8.14411e-05,0.000372991,0.000288889,-1.0037e-05,0.000250985
382,0.00051179,-0.00253391,-0.00467891,0.00890427,0.00479842,0.00479842,0.00479842,0.00479842,0.00479842,0.00479842,0.00479842,0.00479842,0.00479842,-0.968461,-0.995202,0.853686,1.63007,-0.00253391,-0.00467891,0.00890427,-0.0027934,0.00267145,-0.00316684,0.000959848,-3.50941e-05,0.0092175,0.00479842,0.0011179,0.00312896,-3.60832e-05,-0.00109637,-0.000170565,-0.000329103,-0.00136494,-0.000424482,5.37615e-05,0.00438732,0.00062788,-0.00771403,0.00138795,-0.0023818,0.0001747,-0.0027934,0.00267145,-0.00316684,0.000959848,-3.50941e-05,0.0092175,0,0,0,0,0,0,0,0,0,-0.000462376,-1.55011e-05,-0.000333942,-0.000505656,-0.000368083,0.000360296,-2.05558e-06,3.91154e-05,0.000287563,0.000470696,-3.31875e-05,2.70549e-05
383,0.00051179,0.00554702,0.0042488,-0.0435468,0.0271183,0.0271183,0.0271183,0.0271183,0.0271183,0.0271183,0.0271183,0.0271183,0.0271183,-0.972882,-0.0529204,-0.354463,1.03679,0.00554702,0.0042488,-0.0435468,-0.00821325,-0.000131795,-0.00836879,0.00457819,-0.0101342,-0.000620702,0.0271183,-0.0212852,0.101557,0.00468612,-0.0229861,-0.0239647,-0.021448,0.00915329,-0.0831388,-0.0274813,0.0107405,0.00238357,-0.0253201,0.00799684,-0.00557017,0.0597136,-0.00821325,-0.000131795,-0.00836879,0.00457819,-0.0101342,-0.000620702,0,0,0,0,0,0,0,0,0,-0.000491306,-7.98857e-05,2.35646e-05,-0.000414022,-0.000319595,2.19787e-05,-4.69088e-05,-4.37398e-05,0.000319682,0.000115855,-3.37662e-05,3.66523e-05
384,0.00051179,-0.0034016,-0.000785207,0.00182707,0.0686757,0.0686757,0.0686757,0.0686757,0.0686757,0.0686757,0.0686757,0.0686757,0.0686757,-0.931324,-0.760297,0.71551,1.39906,-0.0034016,-0.000785207,0.00182707,0.000279851,-0.000981528,-0.000609998,0.00478257,0.00957188,0.00384692,0.0686757,0.00140657,-0.0150888,0.00073088,-0.00549342,0.00177663,-0.00119198,0.0228511,0.0167138,0.000237925,-0.000882203,-0.00134018,-0.00240397,0.00716083,-8.76449e-05,-0.0222742,0.000279851,-0.000981528,-0.000609998,0.00478257,0.00957188,0.00384692,0,0,0,0,0,0,0,0,0,-0.000487134,-3.64428e-06,-0.00038837,-0.000383583,-0.000357741,0.000385864,1.30261e-05,2.73866e-05,0.000307567,0.000365563,5.49304e-05,6.72001e-06
385,0.00051179,-0.403011,-0.296145,-0.316059,0.00290716,0.00290716,0.00290716,0.00290716,0.00290716,0.00290716,0.00290716,0.00290716,0.00290716,-0.745209,-0.606763,0.160947,0.974372,-0.403011,-0.296145,-0.316059,-0.15507,-0.0946286,-0.840593,-0.0203887,0.136626,0.439969,0.00290716,0.123708,-17.5119,0.0159189,-0.512162,-0.239269,-0.22051,19.2086,18.1541,0.0176357,0.339061,-0.0340634,0.54116,0.469247,0.457703,-19.4337,-0.15507,-0.0946286,-0.840593,-0.0203887,0.136626,0.439969,0,0,0,0,0,0,0,0,0,5.14686e-05,-0.00115322,-0.000549045,-0.00931047,-0.000303233,-0.000238052,-0.00101018,0.00112361,0.000199161,-0.00130056,-9.79876e-05,0.00349195
386,0.00051179,-0.000170756,-0.00281944,0.00542341,0.0799165,0.0799165,0.0799165,0.0799165,0.0799165,0.0799165,0.0799165,0.0799165,0.0799165,-0.829916,0.259015,0.85178,1.21712,-0.000170756,-0.00281944,0.00542341,0.00151509,-0.000556965,-0.000494922,-0.000763176,0.00182915,0.0064426,0.0799165,0.000600234,-0.0015487,7.31423e-05,-0.00168177,-0.00011631,0.000395626,0.00151032,0.00183576,-0.000713574,-0.00081215,-0.00065399,-0.000398793,0.00531335,-0.000423137,-0.00653494,0.00151509,-0.000556965,-0.000494922,-0.000763176,0.00182915,0.0064426,0,0,0,0,0,0,0,0,0,-0.000670843,2.89427e-06,0.000109088,-0.000272185,-0.000340963,-0.000113927,-1.50661e-05,2.19915e-05,0.000328101,0.000271192,-1.02399e-05,2.2415e-05
387,0.00051179,-0.00104944,0.00797468,0.0437597,0.0296823,0.0296823,0.0296823,0.0296823,0.0296823,0.0296823,0.0296823,0.0296823,0.0296823,-0.779682,-0.728213,0.432206,1.15109,-0.00104944,0.00797468,0.0437597,-0.000997564,-0.00351805,0.00757049,-0.0212749,-0.0268461,-0.00949001,0.0296823,0.00128002,-0.0182611,0.000463255,-0.0193626,0.00354724,-0.00134489,0.0424583,0.0157633,-0.0125726,-0.0353103,-0.00295674,0.0050039,0.0466982,0.00879311,-0.0912218,-0.000997564,-0.00351805,0.00757049,-0.0212749,-0.0268461,-0.00949001,0,0,0,0,0,0,0,0,0,-0.000388958,4.09453e-05,-0.00055295,-0.000417925,-0.000269109,0.000522402,-0.000129705,-0.000190416,0.000359982,0.000480181,-0.000107613,3.60486e-05
388,0.00051179,0.000110172,-0.0153383,0.0094931,0.0247944,0.0247944,0.0247944,0.0247944,0.0247944,0.0247944,0.0247944,0.0247944,0.0247944,-0.774794,-0.0610311,-0.545263,0.949391,0.000110172,-0.0153383,0.0094931,-0.0104348,0.00245304,0.00591183,0.00103876,-0.00116092,0.00616431,0.0247944,0.000427559,0.00186773,-0.000499956,0.0188526,0.000741818,-0.000340931,0.0224475,-0.00271972,0.0236702,0.0134617,-0.00532306,0.00127249,-0.0169761,-0.00370087,-0.033213,-0.0104348,0.00245304,0.00591183,0.00103876,-0.00116092,0.00616431,0,0,0,0,0,0,0,0,0,-0.000423983,-6.98422e-05,3.31271e-05,-0.000318618,-0.000316763,-1.35963e-05,0.000103739,-4.94909e-05,0.000379227,0.000374327,-1.53489e-05,-7.4888e-06
389,0.00051179,0.0239416,-0.0102201,-0.0270882,0.0319401,0.0319401,0.0319401,0.0319401,0.0319401,0.0319401,0.0319401,0.0319401,0.0319401,-0.71806,-0.145008,-0.0161145,0.732733,0.0239416,-0.0102201,-0.0270882,-0.0116218,-0.00778656,0.0326715,0.0105353,-0.00372706,-0.00818791,0.0319401,-0.102851,-0.187275,0.0699182,0.48386,-0.49445,0.133174,-2.5446,0.657783,-0.102826,0.207423,-0.160373,1.10938,-0.681063,-0.036459,1.46231,-0.0116218,-0.00778656,0.0326715,0.0105353,-0.00372706,-0.00818791,0,0,0,0,0,0,0,0,0,-0.000606887,-0.000282276,0.000386461,0.00332324,-0.000314677,0.000234855,-0.000171364,-0.00221291,0.00036101,-0.00166479,0.000571907,6.68541e-05
390,0.00051179,0.00225004,-0.00168819,-0.000333162,0.0869492,0.0869492,0.0869492,0.0869492,0.0869492,0.0869492,0.0869492,0.0869492,0.0869492,-0.836949,-0.0159385,0.638057,1.05255,0.00225004,-0.00168819,-0.000333162,-0.00287727,-0.00193185,-0.000563771,-0.00163972,-0.000672388,0.0042794,0.0869492,0.000741735,-0.0095734,0.00016994,0.00488662,0.000354104,-0.000507344,0.0146362,0.00696926,-0.00339629,-0.000739147,-0.000841765,-0.000643402,-0.00245928,0.00173952,-0.0136597,-0.00287727,-0.00193185,-0.000563771,-0.00163972,-0.000672388,0.0042794,0,0,0,0,0,0,0,0,0,-0.000637241,-9.3477e-06,-1.67718e-05,-0.000201751,-0.000337983,-8.47292e-07,-2.38501e-05,1.25989e-05,0.000324212,0.00019104,-2.77404e-05,3.14245e-05
391,0.00051179,-0.00152175,-0.00374673,0.00140398,0.069483,0.069483,0.069483,0.069483,0.069483,0.069483,0.069483,0.069483,0.069483,-0.930517,0.335187,-0.910424,1.34428,-0.00152175,-0.00374673,0.00140398,-0.00440311,-0.00135354,0.000986736,-0.00898241,-0.00250612,-0.000103392,0.069483,0.000963941,-0.0025956,-0.000774674,0.00382244,4.02612e-05,0.00132092,-0.0046069,0.00407708,-0.0013403,0.00113973,8.58186e-05,0.000177738,-0.00121544,-0.00148176,0.00302518,-0.00440311,-0.00135354,0.000986736,-0.00898241,-0.00250612,-0.000103392,0,0,0,0,0,0,0,0,0,-0.000330761,5.12265e-07,-0.000152631,-0.000343223,-0.000313872,0.000131349,-3.39054e-05,4.677e-05,0.000313126,0.0003663,-7.0973e-05,9.78235e-06
392,0.00051179,-0.00162782,-0.0184721,-0.0130801,0.0143412,0.0143412,0.0143412,0.0143412,0.0143412,0.0143412,0.0143412,0.0143412,0.0143412,-0.764341,-0.222671,0.415379,0.897964,-0.00162782,-0.0184721,-0.0130801,-0.00389787,0.0012271,-0.00374866,-0.00892669,0.00618116,-0.00529129,0.0143412,0.000228003,-0.00952583,-0.000180535,0.00337811,4.86934e-05,-0.00172061,0.0949172,0.011105,-0.0114283,0.0211572,0.000472493,-0.00214215,-0.00606318,0.00797739,-0.0796949,-0.00389787,0.0012271,-0.00374866,-0.00892669,0.00618116,-0.00529129,0,0,0,0,0,0,0,0,0,-0.000567928,6.27227e-06,-0.000166692,-0.000284495,-0.000331217,0.000177158,-7.71531e-05,8.94849e-05,0.000340484,0.000229803,-2.29484e-05,3.80521e-05
393,0.00051179,0.0117555,-0.0340604,0.0280589,0.0763804,0.0763804,0.0763804,0.0763804,0.0763804,0.0763804,0.0763804,0.0763804,0.0763804,-0.82638,0.784543,-0.273102,1.17175,0.0117555,-0.0340604,0.0280589,-0.022385,0.00716568,-0.0111193,0.00227465,0.0187344,-0.020757,0.0763804,-0.0399592,1.25439,0.0150765,-0.238914,0.0246719,-0.0573567,0.841625,-1.29082,0.0390953,-0.166433,0.0452205,0.120626,0.439407,-0.0589354,-0.99031,-0.022385,0.00716568,-0.0111193,0.00227465,0.0187344,-0.020757,0,0,0,0,0,0,0,0,0,-0.000829995,-0.000195567,-0.000527314,-0.00140663,-0.000153238,0.000749736,0.000323004,0.000443088,0.000301659,0.000721873,0.000196461,-0.000282308
394,0.00051179,-0.0201059,0.00377453,-0.00173631,0.121924,0.121924,0.121924,0.121924,0.121924,0.121924,0.121924,0.121924,0.121924,-0.871924,0.149945,-0.369156,0.958651,-0.0201059,0.00377453,-0.00173631,-0.00347732,-0.000243785,-0.00123682,-0.00403911,-0.00980837,1.16806e-05,0.121924,-0.0126418,0.211419,0.000274785,-0.0107356,0.000826382,-0.0212471,0.188552,-0.192139,0.00422554,0.0366023,-0.00777287,-0.0104572,-0.0296412,-0.0234493,-0.176359,-0.00347732,-0.000243785,-0.00123682,-0.00403911,-0.00980837,1.16806e-05,0,0,0,0,0,0,0,0,0,-0.00049866,-3.51682e-05,-0.000121508,-0.000502523,-0.000316286,0.000121818,4.63594e-05,-0.000112301,0.000332817,0.000277684,-6.35117e-05,-7.1761e-05
395,0.00051179,0.0206882,-0.000412434,0.00286478,0.0747165,0.0747165,0.0747165,0.0747165,0.0747165,0.0747165,0.0747165,0.0747165,0.0747165,-0.824716,0.0393317,-0.110434,0.833007,0.0206882,-0.000412434,0.00286478,-0.0124327,-0.00332695,0.00243994,0.00260638,0.00433498,0.00896943,0.0747165,-0.175623,-1.13578,-0.031969,-0.16477,-0.788409,0.00109003,-0.673961,1.9035,-0.1263,-0.0585685,-0.0142045,-0.0527516,0.223751,0.0373723,0.723848,-0.0124327,-0.00332695,0.00243994,0.00260638,0.00433498,0.00896943,0,0,0,0,0,0,0,0,0,-0.000632472,-0.00063404,-0.000184764,0.000131283,-0.00034743,-0.000168195,-0.00031223,-3.42389e-05,0.000371344,-9.59833e-05,-6.44566e-05,0.000537949
396,0.00051179,-0.0499324,0.0347531,-0.0176275,0.0838256,0.0838256,0.0838256,0.0838256,0.0838256,0.0838256,0.0838256,0.0838256,0.0838256,-0.833826,0.60017,0.178372,1.04273,-0.0499324,0.0347531,-0.0176275,0.00275299,0.000788175,0.0188675,0.0147327,-0.0114966,-0.00235642,0.0838256,0.571788,-0.763859,-0.00895368,-0.194568,-0.523763,-0.342722,-3.05981,1.33755,0.0583412,-0.258555,-0.0237288,0.429592,0.41837,0.142717,2.64785,0.00275299,0.000788175,0.0188675,0.0147327,-0.0114966,-0.00235642,0,0,0,0,0,0,0,0,0,-0.000149809,0.0019635,0.000452245,-0.00242299,-0.000347519,-0.0005339,-0.000543833,-0.000359006,0.000228345,-0.000815557,6.75197e-06,-0.000207399
397,0.00051179,0.00257483,0.00171516,-0.00290398,0.0815028,0.0815028,0.0815028,0.0815028,0.0815028,0.0815028,0.0815028,0.0815028,0.0815028,-0.918497,0.177335,-0.767732,1.21016,0.00257483,0.00171516,-0.00290398,-0.00351315,-0.00150585,0.000288159,-0.00271459,-0.00214938,-0.000225567,0.0815028,-0.000966594,0.0152234,-0.00175913,0.0115246,0.000560662,4.40963e-05,-0.0004583,-0.0183589,0.000102086,-0.000693335,-0.00091477,0.00283064,-0.0125464,-0.000833113,0.000531632,-0.00351315,-0.00150585,0.000288159,-0.00271459,-0.00214938,-0.000225567,0,0,0,0,0,0,0,0,0,-0.000357538,-1.29938e-05,-0.000102912,-0.0003242,-0.000305081,7.02616e-05,-3.65759e-06,1.72215e-05,0.000328302,0.000327523,-4.7863e-05,4.11152e-06
398,0.00051179,-0.00349066,0.00146025,0.00178972,0.0485006,0.0485006,0.0485006,0.0485006,0.0485006,0.0485006,0.0485006,0.0485006,0.0485006,-0.951499,0.469352,0.904151,1.39396,-0.00349066,0.00146025,0.00178972,-0.00212652,-0.000372717,-0.00276673,0.00825802,-0.00328296,0.00495073,0.0485006,0.00110908,0.00127957,0.00025893,-0.00528715,6.85455e-06,0.000346862,0.00204152,0.00220423,0.000394611,-0.00152042,-0.000371749,0.000114197,0.00534732,-0.00172818,-0.00394544,-0.00212652,-0.000372717,-0.00276673,0.00825802,-0.00328296,0.00495073,0,0,0,0,0,0,0,0,0,-0.000652976,-1.76154e-05,0.000191816,-0.000319259,-0.000319416,-0.000192954,3.0735e-05,1.09841e-05,0.00028792,0.00029506,-4.75311e-05,3.5846e-06
399,0.00051179,-0.000891882,0.00344596,0.0085876,0.0777592,0.0777592,0.0777592,0.0777592,0.0777592,0.0777592,0.0777592,0.0777592,0.0777592,-0.827759,-0.896701,0.637839,1.37699,-0.000891882,0.00344596,0.0085876,0.00136346,-0.00161058,-0.00163084,0.000919014,-0.00278551,0.00545287,0.0777592,0.00146224,-0.003797,0.000197716,-2.56798e-05,0.00209604,-0.000327997,0.00328838,0.00259284,0.000313057,-0.0047835,-0.000633036,-0.00868868,0.00136322,-0.000562686,-0.0031873,0.00136346,-0.00161058,-0.00163084,0.000919014,-0.00278551,0.00545287,0,0,0,0,0,0,0,0,0,-0.000394218,3.80392e-06,-0.000472391,-0.000486594,-0.000313992,0.000458262,-4.1642e-06,-6.3629e-05,0.000345647,0.000467005,2.94435e-05,1.41263e-05
400,0.00051179,0.00414771,-0.00119149,-0.0065919,0.0711909,0.0711909,0.0711909,0.0711909,0.0711909,0.0711909,0.0711909,0.0711909,0.0711909,-0.821191,-0.502049,-0.849278,1.28362,0.00414771,-0.00119149,-0.0065919,-0.0078163,0.00123071,0.00242288,0.00068344,-0.00328079,-0.00184989,0.0711909,0.000439897,0.0038945,-0.000643097,0.00355063,-2.12549e-05,0.000693485,-0.00131439,-0.00802096,-0.000339719,0.00182594,-0.000333115,-0.000440819,-0.00418509,0.000155929,0.00834711,-0.0078163,0.00123071,0.00242288,0.00068344,-0.00328079,-0.00184989,0,0,0,0,0,0,0,0,0,-0.000390038,-2.68128e-05,0.00024792,-0.000371038,-0.000316108,-0.000242043,1.17878e-05,-8.03545e-05,0.000362955,0.000402201,4.42155e-05,1.5994e-06
401,0.00051179,0.0117707,0.0057679,-0.000585809,0.0974439,0.0974439,0.0974439,0.0974439,0.0974439,0.0974439,0.0974439,0.0974439,0.0974439,-0.847444,0.22999,0.334709,0.939727,0.0117707,0.0057679,-0.000585809,0.00196265,0.00271602,-0.00340328,0.00544527,-0.0137733,0.00561311,0.0974439,0.0114901,-0.272396,0.00389893,-0.0748598,0.0104116,-0.0221795,0.254555,0.250214,0.0170453,-0.105283,-0.0119141,-0.0416511,0.174375,0.025823,-0.212318,0.00196265,0.00271602,-0.00340328,0.00544527,-0.0137733,0.00561311,0,0,0,0,0,0,0,0,0,-0.000531599,-1.04817e-05,0.000209459,-0.000473011,-0.000327075,-0.00014331,3.47072e-05,-0.000177166,0.000301316,0.000217183,-7.97083e-05,7.94352e-05
402,0.00051179,0.000884837,-0.00400753,-0.00254234,0.0616619,0.0616619,0.0616619,0.0616619,0.0616619,0.0616619,0.0616619,0.0616619,0.0616619,-0.907189,0.732328,-0.938338,1.49659,0.000884837,-0.00400753,-0.00254234,-0.00322696,-0.000385934,0.00176929,-0.00411468,-0.00414137,0.00125618,0.0616619,0.00154044,-0.00765335,-0.000659458,0.00226977,-0.000109396,0.000784218,-0.00155533,0.00687791,-0.000525551,0.00195884,7.11251e-05,-5.59981e-05,-0.000221079,-0.00137037,0.00415366,-0.00322696,-0.000385934,0.00176929,-0.00411468,-0.00414137,0.00125618,0,0,0,0,0,0,0,0,0,-0.000403069,-1.00075e-06,-0.00025773,-0.000475494,-0.000322217,0.000247276,-1.57693e-05,9.88654e-05,0.000282981,0.000501029,-0.000139568,6.86089e-06
403,0.00051179,0.00399809,0.0073233,-0.0014476,0.0995791,0.0995791,0.0995791,0.0995791,0.0995791,0.0995791,0.0995791,0.0995791,0.0995791,-0.849579,0.409025,-0.475563,1.05605,0.00399809,0.0073233,-0.0014476,-0.00430066,0.00197261,0.000857882,0.00242534,-0.00193709,-0.00296136,0.0995791,-0.0021361,0.0646413,5.19305e-06,-0.00198189,0.00181571,-0.00644864,0.107874,-0.0704551,0.022671,0.000685343,-0.00294589,0.0192517,-0.00602674,-0.00998675,-0.125678,-0.00430066,0.00197261,0.000857882,0.00242534,-0.00193709,-0.00296136,0,0,0,0,0,0,0,0,0,-0.000500523,-3.87739e-05,-0.000282609,-0.000406469,-0.000279719,0.000302387,0.000118892,1.47563e-05,0.000330068,0.000350562,-6.35861e-05,-7.13307e-05
404,0.00051179,-0.00389987,0.00403604,-0.00396079,0.0970385,0.0970385,0.0970385,0.0970385,0.0970385,0.0970385,0.0970385,0.0970385,0.0970385,-0.902961,-0.371385,-0.464379,1.08116,-0.00389987,0.00403604,-0.00396079,-0.00497512,-0.000728486,-0.00139535,-0.0020069,0.00366872,-0.00431117,0.0970385,-0.0091819,0.160643,-0.00031399,-0.00448861,0.00361474,-0.0140862,0.141296,-0.160358,0.00468723,-0.0120432,-0.00525504,-0.00163421,0.0124958,-0.0113189,-0.135701,-0.00497512,-0.000728486,-0.00139535,-0.0020069,0.00366872,-0.00431117,0,0,0,0,0,0,0,0,0,-0.000488393,-3.95081e-05,0.000239508,-0.000387176,-0.000322724,-0.000249933,4.46787e-05,-4.72401e-05,0.000333942,0.00023236,3.1377e-05,-4.68733e-05
405,0.00051179,-0.00106702,-0.0117831,0.0120817,0.0259507,0.0259507,0.0259507,0.0259507,0.0259507,0.0259507,0.0259507,0.0259507,0.0259507,-0.855684,-0.974049,-0.526868,1.39948,-0.00106702,-0.0117831,0.0120817,0.00899753,0.00383219,-0.00901357,0.0032344,-0.00341237,-0.0122899,0.0259507,0.00155558,-0.0132482,-0.000436865,-0.00390933,-0.00808029,0.00199408,-0.0300145,0.0223955,0.000696464,0.0313948,-1.28457e-05,-0.0344128,-0.0157024,0.00653877,0.0523456,0.00899753,0.00383219,-0.00901357,0.0032344,-0.00341237,-0.0122899,0,0,0,0,0,0,0,0,0,-0.000722781,4.26891e-05,0.000507123,-0.000671787,-0.000356281,-0.00047317,9.57794e-06,-0.000230476,0.000299633,0.000601592,0.000196224,-3.88319e-05
406,0.00051179,0.00419299,-0.00417093,-0.00809992,0.03026,0.03026,0.03026,0.03026,0.03026,0.03026,0.03026,0.03026,0.03026,-0.837148,0.96974,0.606634,1.41747,0.00419299,-0.00417093,-0.00809992,-0.00259258,-0.00137062,-0.00532668,0.00382649,0.00170903,0.00505877,0.03026,0.001233,-0.00588983,7.45058e-09,0.00309239,0.0017552,-0.000125289,0.00319521,-5.83591e-05,-0.000140654,0.00940058,-0.000277972,-0.000231761,-0.00832204,-0.00147358,0.00513648,-0.00259258,-0.00137062,-0.00532668,0.00382649,0.00170903,0.00505877,0,0,0,0,0,0,0,0,0,-0.000379592,-1.36188e-05,0.000401622,-0.000565486,-0.000364477,-0.000415328,1.16083e-05,0.000112415,0.000305809,0.000510966,-9.81049e-05,1.1105e-05
407,0.00051179,7.0126e-05,-0.0022734,-0.000915096,0.0696305,0.0696305,0.0696305,0.0696305,0.0696305,0.0696305,0.0696305,0.0696305,0.0696305,-0.819631,0.740116,0.836899,1.38563,7.0126e-05,-0.0022734,-0.000915096,0.00399894,-0.00274065,-0.00021952,0.00194485,0.00402561,0.00500348,0.0696305,0.000554278,-0.000652611,0.000167914,-0.00224876,0.000333213,0.000383049,0.000332399,0.000249273,-0.000666605,0.00145654,-0.000751514,0.000431715,0.00306562,-0.000821762,0.000150982,0.00399894,-0.00274065,-0.00021952,0.00194485,0.00402561,0.00500348,0,0,0,0,0,0,0,0,0,-0.000567354,1.12124e-05,0.000264532,-0.00041399,-0.000351006,-0.000290259,-5.16245e-06,5.90963e-05,0.000325032,0.000415625,-2.63553e-05,9.35493e-06
408,0.00051179,0.0112016,0.00971048,-0.00763148,0.12237,0.12237,0.12237,0.12237,0.12237,0.12237,0.12237,0.12237,0.12237,-0.87237,0.0472184,0.32819,0.933256,0.0112016,0.00971048,-0.00763148,0.00424924,0.0020627,0.000400648,-0.00160489,-0.000995086,0.0040865,0.12237,0.0113732,-0.223232,0.00299758,-0.0537191,0.0186363,-0.0204863,0.150841,0.193394,0.0439154,-0.0346935,-0.00477029,-0.0559104,0.0787022,0.0186816,-0.0872991,0.00424924,0.0020627,0.000400648,-0.00160489,-0.000995086,0.0040865,0,0,0,0,0,0,0,0,0,-0.000553705,-1.50045e-05,5.95203e-05,-0.000396304,-0.000340188,-8.91751e-06,0.000118436,-1.18422e-05,0.000307329,0.000195448,-4.58115e-05,2.07239e-05
409,0.00051179,0.00143823,0.00618732,-0.0133631,0.0448163,0.0448163,0.0448163,0.0448163,0.0448163,0.0448163,0.0448163,0.0448163,0.0448163,-0.955184,0.59791,-0.574318,1.2648,0.00143823,0.00618732,-0.0133631,-0.00194959,-0.000971887,-0.00454675,-0.00847626,-0.00857274,0.00738952,0.0448163,-0.0033987,0.0599645,-0.00241124,0.00126829,0.00132785,-0.00599366,0.0416747,-0.0627306,0.00752474,-0.0044553,-0.000774889,0.0165989,-0.00300031,-0.0044355,-0.0449106,-0.00194959,-0.000971887,-0.00454675,-0.00847626,-0.00857274,0.00738952,0,0,0,0,0,0,0,0,0,-0.000522994,-2.28809e-05,-0.000386454,-0.000415737,-0.00030669,0.000352622,-8.97069e-07,4.66896e-05,0.000284277,0.000310333,-0.000140166,1.86306e-05
410,0.00051179,-0.0115775,0.00484316,-0.00328851,0.121732,0.121732,0.121732,0.121732,0.121732,0.121732,0.121732,0.121732,0.121732,-0.871732,-0.345657,-0.317408,0.990021,-0.0115775,0.00484316,-0.00328851,-0.00504264,0.00319415,0.00086694,-0.00135003,0.0146226,-0.00440817,0.121732,-0.048248,0.768686,0.00420434,-0.144783,-0.000894065,-0.0604513,0.468559,-0.756214,-0.00725879,-0.0791834,0.00458882,-0.0208891,0.219123,-0.0529761,-0.444381,-0.00504264,0.00319415,0.00086694,-0.00135003,0.0146226,-0.00440817,0,0,0,0,0,0,0,0,0,-0.000562988,-0.000128818,0.00029134,-0.000798094,-0.000325942,-0.000217355,9.45909e-05,0.000120483,0.000327997,0.00020225,7.16313e-05,-0.000149286
411,0.00051179,0.299517,-0.120742,0.0574417,0.00650934,0.00650934,0.00650934,0.00650934,0.00650934,0.00650934,0.00650934,0.00650934,0.00650934,-0.724244,0.218566,-0.0934907,0.762261,0.299517,-0.120742,0.0574417,0.0250129,0.00453734,0.0659527,0.0787487,-0.00893609,-0.0342603,0.00650934,-1.01431,-11.0852,-0.46223,-5.55719,-2.03256,-0.240198,-4.05943,12.8182,-0.618133,-1.18029,-0.0837443,-0.368617,6.85822,-0.232692,4.37061,0.0250129,0.00453734,0.0659527,0.0787487,-0.00893609,-0.0342603,0,0,0,0,0,0,0,0,0,-0.000938348,-0.00287462,-0.00221502,0.00099051,-0.00052988,-0.00236191,-0.000625032,4.72277e-05,0.000265397,-0.00273296,-0.000974032,0.000737129
412,0.00051179,0.00301718,0.000302697,-0.00170144,0.124034,0.124034,0.124034,0.124034,0.124034,0.124034,0.124034,0.124034,0.124034,-0.874034,0.331519,-0.691033,1.16248,0.00301718,0.000302697,-0.00170144,-0.00406703,-0.00108552,0.00109081,0.00139382,-0.000856624,-0.00290301,0.124034,-0.000154302,0.0144338,-0.00162952,0.0149218,0.00135206,-0.00122684,0.00630034,-0.0188031,0.00370268,-0.00311896,-0.00112495,0.00363326,-0.0121056,-8.99024e-05,-0.00823216,-0.00406703,-0.00108552,0.00109081,0.00139382,-0.000856624,-0.00290301,0,0,0,0,0,0,0,0,0,-0.000406303,-1.86631e-05,-0.000191421,-0.000339132,-0.00029608,0.000164271,2.79261e-05,3.88333e-05,0.000333972,0.000337772,-5.8649e-05,-1.2521e-05
413,0.00051179,0.00198609,0.00373103,-0.00537565,0.0536567,0.0536567,0.0536567,0.0536567,0.0536567,0.0536567,0.0536567,0.0536567,0.0536567,-0.946343,-0.583759,-0.566728,1.24801,0.00198609,0.00373103,-0.00537565,-0.00516362,0.00143246,-0.00283641,-0.00804868,0.00511745,0.0058442,0.0536567,-0.00403546,0.0716464,-0.0026521,0.0150864,-0.000227,-0.00663621,0.0523514,-0.0734055,0.00285579,0.00762986,-0.00445262,-0.000209608,-0.0264473,-0.00427435,-0.0467662,-0.00516362,0.00143246,-0.00283641,-0.00804868,0.00511745,0.0058442,0,0,0,0,0,0,0,0,0,-0.000517629,-3.12007e-05,0.00038382,-0.000371292,-0.000304217,-0.000396017,-1.11697e-05,-9.4682e-05,0.000312507,0.000276566,0.00010133,2.2644e-05
414,0.00051179,0.00350109,-0.00315061,0.00584741,0.0597031,0.0597031,0.0597031,0.0597031,0.0597031,0.0597031,0.0597031,0.0597031,0.0597031,-0.8295,0.263629,0.940297,1.2813,0.00350109,-0.00315061,0.00584741,-0.000400312,-0.000512149,-0.000736646,-0.00108595,0.00110438,0.00644869,0.0597031,0.00103046,-0.00304025,-0.000262909,-0.000878261,-0.000188754,0.000498623,0.00103573,-0.000272086,-0.000950323,-0.000698651,-0.00020114,-0.000332433,0.00472752,-0.00102409,-0.0065507,-0.000400312,-0.000512149,-0.000736646,-0.00108595,0.00110438,0.00644869,0,0,0,0,0,0,0,0,0,-0.000695527,-1.48595e-06,9.65106e-05,-0.000294501,-0.000339145,-0.000104261,-1.48181e-05,2.1947e-05,0.000330135,0.000292121,-1.29146e-05,2.24863e-05
415,0.00051179,-6.35465e-05,0.00122089,0.000909013,0.0614126,0.0614126,0.0614126,0.0614126,0.0614126,0.0614126,0.0614126,0.0614126,0.0614126,-0.811413,-0.402013,0.765138,1.18551,-6.35465e-05,0.00122089,0.000909013,0.00295085,-0.000595151,0.000631256,-0.00520803,-0.00431463,0.00590619,0.0614126,0.000206366,-0.000897964,0.000177629,-0.00131961,-0.000614762,0.000263911,0.00201249,0.00157627,-0.000893878,-0.00140712,-0.000860928,0.000415844,0.00150584,-0.000200465,-0.00333735,0.00295085,-0.000595151,0.000631256,-0.00520803,-0.00431463,0.00590619,0,0,0,0,0,0,0,0,0,-0.000614695,1.26003e-05,-0.000228867,-0.000261136,-0.000322515,0.000224691,-3.36953e-05,-1.81159e-05,0.000346497,0.000270088,-3.36396e-05,2.53428e-05
416,0.00051179,-0.188616,0.0436605,0.013808,0.0418066,0.0418066,0.0418066,0.0418066,0.0418066,0.0418066,0.0418066,0.0418066,0.0418066,-0.791807,0.687848,0.155987,1.06039,-0.188616,0.0436605,0.013808,0.0263714,0.017758,-0.014274,0.0421232,-0.0536707,-0.034332,0.0418066,0.807239,-3.87339,-0.0739405,-0.353064,-0.741289,-0.531903,-3.98969,4.80329,0.0877961,-0.511933,0.0553599,0.725482,0.821337,0.385927,3.2504,0.0263714,0.017758,-0.014274,0.0421232,-0.0536707,-0.034332,0,0,0,0,0,0,0,0,0,4.9673e-05,0.0026506,0.000151242,-0.00451094,-0.000427956,-0.000713067,-0.000867855,-0.00035249,0.00020647,-0.000950826,0.000369383,0.000240526
417,0.00051179,0.0193525,0.00113199,-0.00701916,0.00610832,0.00610832,0.00610832,0.00610832,0.00610832,0.00610832,0.00610832,0.00610832,0.00610832,-0.756108,-0.0664266,-0.861455,1.14814,0.0193525,0.00113199,-0.00701916,-0.00400859,0.00119012,0.00206926,0.00812011,-0.00225473,-0.00362921,0.00610832,0.000212803,-0.014148,-0.000454657,0.00220874,-0.000272245,0.000446554,-0.00196814,-0.00493229,0.0051295,0.00466061,-0.000773078,4.80723e-05,-0.00800134,0.00170975,0.00893923,-0.00400859,0.00119012,0.00206926,0.00812011,-0.00225473,-0.00362921,0,0,0,0,0,0,0,0,0,-0.00032419,-2.76724e-05,2.72972e-05,-0.000304922,-0.000308568,-1.99426e-05,5.75545e-05,-1.25137e-05,0.000389069,0.00033008,-1.77644e-05,-1.82908e-05
418,0.00051179,0.000285522,-0.00208202,0.00520365,0.10753,0.10753,0.10753,0.10753,0.10753,0.10753,0.10753,0.10753,0.10753,-0.878591,0.0671949,0.89247,1.25417,0.000285522,-0.00208202,0.00520365,-0.000533112,-0.00154423,-0.00131516,0.00160506,1.96169e-05,0.00536803,0.10753,0.00105543,-0.00321527,4.17978e-06,-0.00229177,0.000260178,0.000252377,0.00347835,0.00266957,-0.000175716,-0.000393108,-0.000315752,-0.000450317,0.00476689,-0.000652902,-0.00823168,-0.000533112,-0.00154423,-0.00131516,0.00160506,1.96169e-05,0.00536803,0,0,0,0,0,0,0,0,0,-0.000693195,-5.08084e-06,1.65067e-05,-0.000254065,-0.000335032,-3.19073e-05,-5.45734e-07,1.88085e-05,0.0003196,0.000243437,-2.17698e-05,1.58832e-05
419,0.00051179,-0.0275278,0.0106626,-0.0814173,0.0150286,0.0150286,0.0150286,0.0150286,0.0150286,0.0150286,0.0150286,0.0150286,0.0150286,-0.952773,-0.984971,-0.128736,1.37642,-0.0275278,0.0106626,-0.0814173,-0.0175712,0.0251679,-0.0400411,0.00262031,-0.00635781,0.00676531,0.0150286,-0.188254,-2.02395,-0.0202242,-0.0955496,-1.13274,0.364361,-0.549572,3.18422,-0.000972586,-0.0694863,0.00522559,0.16795,0.154373,0.187281,0.463039,-0.0175712,0.0251679,-0.0400411,0.00262031,-0.00635781,0.00676531,0,0,0,0,0,0,0,0,0,-0.00090041,-0.00101743,0.00146077,0.00143673,-0.000402594,-0.00141134,1.99282e-05,-0.000238576,0.000305086,0.00180646,0.000227253,0.000981919
420,0.00051179,-0.00804055,-0.00208053,-0.00612879,0.0662569,0.0662569,0.0662569,0.0662569,0.0662569,0.0662569,0.0662569,0.0662569,0.0662569,-0.816257,0.468874,-0.263548,0.977535,-0.00804055,-0.00208053,-0.00612879,-0.0143618,-0.0113997,-0.0211063,-0.0122186,-0.0327517,-0.00595874,0.0662569,-0.0547843,1.9407,-0.00161522,0.142217,0.034134,-0.0997314,1.84907,-1.96679,0.0391047,0.17063,-0.0119805,0.116117,-0.310767,-0.141097,-1.95906,-0.0143618,-0.0113997,-0.0211063,-0.0122186,-0.0327517,-0.00595874,0,0,0,0,0,0,0,0,0,-0.000691146,-0.000127289,-0.00050243,-0.00178656,-0.000275517,0.000372281,0.000352872,-0.000341259,0.000294492,0.000578182,-0.000106064,-0.000516837
421,0.00051179,0.0189956,0.0137786,0.0159714,0.123825,0.123825,0.123825,0.123825,0.123825,0.123825,0.123825,0.123825,0.123825,-0.873825,0.785922,0.337662,1.22281,0.0189956,0.0137786,0.0159714,-0.00123127,0.0033174,0.0030181,-0.00278706,0.00951053,0.00709407,0.123825,0.0249741,-0.394217,-0.0147015,0.0970859,-0.0290059,-0.0262806,0.164817,0.404227,-0.0182567,0.0666244,0.0204223,0.0717448,-0.177489,0.0276171,-0.252533,-0.00123127,0.0033174,0.0030181,-0.00278706,0.00951053,0.00709407,0,0,0,0,0,0,0,0,0,-0.000318222,7.55482e-05,0.000562151,-0.000634008,-0.000383014,-0.000675992,-0.000148384,0.000238368,0.000279278,0.000401382,6.0961e-05,0.00013039
422,0.00051179,-0.0067333,0.0182299,-0.00824103,0.0507681,0.0507681,0.0507681,0.0507681,0.0507681,0.0507681,0.0507681,0.0507681,0.0507681,-0.949232,-0.589216,-0.384251,1.18147,-0.0067333,0.0182299,-0.00824103,-0.00661776,-0.00189604,0.00471262,-0.00564009,5.83725e-05,0.0105118,0.0507681,-0.0632542,0.5124,-0.00206356,-0.00610123,0.0708186,-0.0565382,0.184281,-0.576485,-0.00731133,-0.0825962,2.89259e-05,0.0706952,0.0704675,-0.0340294,-0.246735,-0.00661776,-0.00189604,0.00471262,-0.00564009,5.83725e-05,0.0105118,0,0,0,0,0,0,0,0,0,-0.000592254,-0.000226658,0.000453462,-0.000474827,-0.00032326,-0.000493058,5.7944e-05,-9.46358e-05,0.000314109,-4.34288e-05,9.55088e-05,5.11303e-06
423,0.00051179,-0.0020427,-0.00269296,0.00734839,0.0554699,0.0554699,0.0554699,0.0554699,0.0554699,0.0554699,0.0554699,0.0554699,0.0554699,-0.94453,0.541305,0.546004,1.2179,-0.0020427,-0.00269296,0.00734839,0.000647425,-0.000424396,-0.00407574,0.00592868,-0.00556225,0.00118207,0.0554699,0.00729443,-0.0750079,-0.00230216,0.00580395,-0.00621168,-0.00918759,0.0557353,0.0832623,0.0031112,-0.0313845,-0.00144343,0.00367623,0.0282735,0.0101729,-0.0667599,0.000647425,-0.000424396,-0.00407574,0.00592868,-0.00556225,0.00118207,0,0,0,0,0,0,0,0,0,-0.000523917,7.01312e-06,0.000342668,-0.000329667,-0.000320459,-0.000369933,1.25032e-05,-2.03294e-05,0.000282802,0.000197033,-4.97273e-05,2.40785e-05
424,0.00051179,0.000172962,0.00198551,0.000219481,0.0840215,0.0840215,0.0840215,0.0840215,0.0840215,0.0840215,0.0840215,0.0840215,0.0840215,-0.834021,-0.302248,0.70796,1.13497,0.000172962,0.00198551,0.000219481,0.00099471,-0.000414429,-2.65706e-05,-0.00351659,-0.00265658,0.00515013,0.0840215,0.000321701,-0.00314879,0.000188418,2.61388e-05,-0.000509012,-5.74253e-05,0.00714577,0.00348484,-0.00158604,-0.00235543,-0.000867542,0.00013517,0.000343779,0.000421435,-0.00750042,0.00099471,-0.000414429,-2.65706e-05,-0.00351659,-0.00265658,0.00515013,0,0,0,0,0,0,0,0,0,-0.000621475,4.52203e-06,-0.000185335,-0.000234256,-0.000329668,0.000183075,-2.75732e-05,-2.98456e-06,0.000336021,0.000233416,-3.22566e-05,2.57978e-05
425,0.00051179,0.000455797,0.00781091,0.0011332,0.079338,0.079338,0.079338,0.079338,0.079338,0.079338,0.079338,0.079338,0.079338,-0.920662,-0.263955,0.424224,1.0475,0.000455797,0.00781091,0.0011332,0.000490807,-0.000943182,0.000805724,-0.000651165,0.00361082,0.00144333,0.079338,0.0126773,-0.154917,-0.000912957,-0.00538603,0.00768135,-0.0171571,0.117188,0.146779,0.0190163,0.0540393,0.00610781,-0.0230046,-0.0564642,0.0178755,-0.0953171,0.000490807,-0.000943182,0.000805724,-0.000651165,0.00361082,0.00144333,0,0,0,0,0,0,0,0,0,-0.000562392,7.16492e-06,-0.00019043,-0.000278795,-0.000359917,0.000171869,3.31503e-05,0.000110134,0.000308804,0.000115282,-1.29476e-05,3.79187e-05
426,0.00051179,0.018016,0.00374484,0.0309107,0.0855794,0.0855794,0.0855794,0.0855794,0.0855794,0.0855794,0.0855794,0.0855794,0.0855794,-0.914421,-0.154988,-0.108621,0.933801,0.018016,0.00374484,0.0309107,-0.00829205,-0.0127911,-0.00174972,0.00547308,-0.00678836,-0.00716627,0.0855794,-0.155993,-0.8907,0.0642825,0.410148,-0.377737,0.0268169,-0.0845538,1.25042,-0.0622353,0.0947828,-0.0274755,0.0861931,-0.508675,0.0472642,-0.03255,-0.00829205,-0.0127911,-0.00174972,0.00547308,-0.00678836,-0.00716627,0,0,0,0,0,0,0,0,0,-0.000606693,-0.000612638,0.000275835,9.94943e-05,-0.000319356,0.000239079,-7.50233e-05,-0.000235039,0.000376835,0.000151178,-0.0001076,0.000409278
427,0.00051179,0.0165339,0.00266364,0.0237292,0.0288265,0.0288265,0.0288265,0.0288265,0.0288265,0.0288265,0.0288265,0.0288265,0.0288265,-0.778827,-0.449867,-0.596483,1.07923,0.0165339,0.00266364,0.0237292,-0.00364363,0.00443927,0.00569374,0.012399,-0.00573129,0.00638967,0.0288265,0.000502422,-0.0114322,-0.000795059,0.00974271,-0.000877801,-6.96257e-05,0.0178896,-0.00422383,0.0133226,0.0106305,-0.00404872,-0.00273443,-0.0230369,-0.00317939,-0.0388843,-0.00364363,0.00443927,0.00569374,0.012399,-0.00573129,0.00638967,0,0,0,0,0,0,0,0,0,-0.000466339,-4.54644e-05,0.000283826,-0.000346089,-0.000351483,-0.000247384,9.88493e-05,-0.000118613,0.000378527,0.00040233,2.08127e-05,-1.3707e-05
428,0.00051179,0.0027176,-0.00185626,-0.00228073,0.0300835,0.0300835,0.0300835,0.0300835,0.0300835,0.0300835,0.0300835,0.0300835,0.0300835,-0.966533,0.969917,-0.964716,1.67499,0.0027176,-0.00185626,-0.00228073,-0.00151757,0.00106417,0.00130832,-0.00295036,-0.00525585,0.00573256,0.0300835,0.00441034,-0.0250351,-0.00019484,-0.000742815,0.0037649,-5.28246e-05,0.000978658,0.0185526,0.000436602,0.00218512,9.65595e-05,-1.84743e-05,0.000413953,-0.00155008,0.00132055,-0.00151757,0.00106417,0.00130832,-0.00295036,-0.00525585,0.00573256,0,0,0,0,0,0,0,0,0,-0.000452317,9.20061e-06,-0.000268913,-0.000612324,-0.000344003,0.000277606,-1.7832e-05,8.98161e-05,0.000213094,0.000624879,-0.000141409,1.56491e-05
429,0.00051179,0.00254641,-0.000785941,-0.00281328,0.111483,0.111483,0.111483,0.111483,0.111483,0.111483,0.111483,0.111483,0.111483,-0.861483,-0.320224,-0.77091,1.19958,0.00254641,-0.000785941,-0.00281328,-0.00651949,0.00325022,0.00221534,-0.000286624,-0.003053,-0.00360584,0.111483,-0.00016205,0.0129369,-0.00113212,0.00733883,-0.000647621,-0.000188611,0.00189301,-0.0148357,0.000604613,0.00317897,-0.000854352,-0.0019571,-0.00973186,-2.91392e-05,0.00287736,-0.00651949,0.00325022,0.00221534,-0.000286624,-0.003053,-0.00360584,0,0,0,0,0,0,0,0,0,-0.000375904,-2.18709e-05,0.000182982,-0.000324444,-0.000310654,-0.000161801,1.31267e-05,-5.79197e-05,0.000352979,0.000344711,1.88462e-05,-6.63814e-06
430,0.00051179,0.00857668,0.0142674,-0.00319952,0.0956891,0.0956891,0.0956891,0.0956891,0.0956891,0.0956891,0.0956891,0.0956891,0.0956891,-0.854631,0.904311,0.29713,1.27924,0.00857668,0.0142674,-0.00319952,-0.00779261,0.00417035,-0.00861942,-0.00425375,0.0267082,0.00220269,0.0956891,0.0173292,-0.310672,-0.0175166,0.175913,0.109086,0.00698068,-0.0435085,0.193009,-0.00981511,0.144617,0.0312781,-0.161194,-0.334797,-0.0198711,0.207902,-0.00779261,0.00417035,-0.00861942,-0.00425375,0.0267082,0.00220269,0,0,0,0,0,0,0,0,0,-0.000216164,7.32993e-05,0.000673225,-0.000747304,-0.000424618,-0.000806688,-4.47282e-05,0.000456301,0.000300303,0.000730917,0.000123562,-6.2726e-05
431,0.00051179,-0.00359583,-0.00545355,0.00681065,0.0420567,0.0420567,0.0420567,0.0420567,0.0420567,0.0420567,0.0420567,0.0420567,0.0420567,-0.957943,-0.858216,0.708836,1.46855,-0.00359583,-0.00545355,0.00681065,-0.000553213,0.000461612,-0.0011384,0.00428745,0.0120593,0.00783372,0.0420567,0.00203128,-0.0157902,0.000630923,-0.00539595,0.00338372,-0.00149333,0.0233713,0.0160023,0.000717236,0.00692262,-0.000866646,-0.00907502,0.00392688,-0.000270519,-0.0211069,-0.000553213,0.000461612,-0.0011384,0.00428745,0.0120593,0.00783372,0,0,0,0,0,0,0,0,0,-0.000444524,-8.81653e-06,-0.000419245,-0.000442884,-0.00037002,0.00043017,8.81655e-06,4.5504e-05,0.000290871,0.000416567,6.64227e-05,2.16091e-05
432,0.00051179,-0.000278004,0.000808429,0.00220336,0.122061,0.122061,0.122061,0.122061,0.122061,0.122061,0.122061,0.122061,0.122061,-0.877939,-0.210326,0.780966,1.1937,-0.000278004,0.000808429,0.00220336,-0.00215135,-0.00178593,-0.000783572,0.00207124,-0.00101572,0.00415255,0.122061,0.00048025,-0.00503226,0.000220604,-0.00368468,-0.000141441,-0.000182964,0.00866512,0.0054517,-0.00087099,-8.87948e-06,-0.000683572,-4.53181e-05,0.00288513,0.000268575,-0.0108232,-0.00215135,-0.00178593,-0.000783572,0.00207124,-0.00101572,0.00415255,0,0,0,0,0,0,0,0,0,-0.000652596,-1.29135e-05,-0.000125139,-0.000234509,-0.00033688,0.000109486,1.44323e-06,8.26788e-06,0.000324935,0.000224844,-2.52608e-05,1.75476e-05
433,0.00051179,-0.0140392,0.00641447,-0.0289118,0.104769,0.104769,0.104769,0.104769,0.104769,0.104769,0.104769,0.104769,0.104769,-0.895231,-0.671513,-0.231045,1.14269,-0.0140392,0.00641447,-0.0289118,-0.00487825,-0.00245446,0.0148989,0.00609104,-0.000819234,0.00173831,0.104769,-0.284697,0.505526,-0.0304632,0.101983,0.296465,-0.172461,-1.00547,-0.787952,-0.0204294,-0.147406,-0.0114676,0.230505,0.039008,-0.0561109,0.803878,-0.00487825,-0.00245446,0.0148989,0.00609104,-0.000819234,0.00173831,0,0,0,0,0,0,0,0,0,-0.000785746,-0.00103447,0.000411491,-0.00122769,-0.000386829,-0.000740667,0.000341715,-0.00014222,0.000301853,-0.000347935,1.93513e-05,0.000141544
434,0.00051179,-0.0225382,0.020545,-0.0636206,0.00123134,0.00123134,0.00123134,0.00123134,0.00123134,0.00123134,0.00123134,0.00123134,0.00123134,-0.998769,-0.480389,-0.365797,1.1671,-0.0225382,0.020545,-0.0636206,0.000976978,-0.00928267,0.00769581,-0.0179924,-0.0120155,0.025099,0.00123134,-0.104776,0.474779,0.00784463,-0.0254905,0.084521,-0.0727969,0.07765,-0.536762,-0.0202451,-0.0892526,0.0126969,0.0513982,0.0941981,-0.0274148,-0.0654276,0.000976978,-0.00928267,0.00769581,-0.0179924,-0.0120155,0.025099,0,0,0,0,0,0,0,0,0,-0.000541754,-0.000352437,0.00032921,-0.000335066,-0.000301147,-0.00034359,-2.46267e-05,-3.04259e-05,0.000333637,-0.000315945,3.72395e-05,0.000154982
435,0.00051179,0.00994113,-0.00171836,-0.0103567,0.0576058,0.0576058,0.0576058,0.0576058,0.0576058,0.0576058,0.0576058,0.0576058,0.0576058,-0.807606,-0.18027,-0.301416,0.880668,0.00994113,-0.00171836,-0.0103567,-0.000611613,0.0028648,-0.00610747,-0.00990344,0.0207472,0.00645978,0.0576058,-0.00511549,0.261883,-0.000492863,-0.0346941,0.00272862,-0.0167651,0.459549,-0.274553,0.00901538,-0.0461095,-0.00507625,-0.0132391,0.0825219,-0.0370977,-0.435953,-0.000611613,0.0028648,-0.00610747,-0.00990344,0.0207472,0.00645978,0,0,0,0,0,0,0,0,0,-0.000537604,1.43488e-05,0.00018115,-0.000686,-0.000324512,-0.000157431,3.8544e-05,0.000116509,0.000357732,0.000457274,4.02008e-05,-0.000110205
436,0.00051179,0.0010278,-0.00470601,0.00898914,0.075882,0.075882,0.075882,0.075882,0.075882,0.075882,0.075882,0.075882,0.075882,-0.825882,-0.854935,-0.566804,1.31691,0.0010278,-0.00470601,0.00898914,-0.0040787,0.00265855,0.00323939,-0.00128528,-0.00771101,0.00195755,0.075882,0.00180377,0.0037531,-0.000968032,0.000273338,-0.00252806,0.000238504,0.00389369,-0.00225284,0.00408982,0.0235646,-0.00244039,-0.0112582,-0.0191319,0.00281366,-0.00162466,-0.0040787,0.00265855,0.00323939,-0.00128528,-0.00771101,0.00195755,0,0,0,0,0,0,0,0,0,-0.000639357,-1.7491e-05,0.000473884,-0.000556033,-0.000360245,-0.000456979,7.90637e-06,-0.000224933,0.00033737,0.000590812,0.000123419,1.77397e-05
437,0.00051179,0.0198374,-0.0940094,0.206394,0.00156126,0.00156126,0.00156126,0.00156126,0.00156126,0.00156126,0.00156126,0.00156126,0.00156126,-0.748439,-0.44208,-0.0324796,0.869856,0.0198374,-0.0940094,0.206394,-0.048916,0.0178155,0.0427803,-0.0199142,-0.02291,-0.00640872,0.00156126,-0.847118,-6.2664,0.190861,2.16036,0.367992,0.556069,-1.95891,5.87857,-0.223283,0.153521,-0.198417,-0.63726,-2.21987,-0.105643,2.38978,-0.048916,0.0178155,0.0427803,-0.0199142,-0.02291,-0.00640872,0,0,0,0,0,0,0,0,0,-0.000920705,-0.00303638,0.000963605,0.0102919,-0.000280911,0.00112316,0.000227801,-0.00243931,0.000301935,-0.00430345,0.000226042,0.000883528
438,0.00051179,-0.0224201,-0.00781047,-0.0153275,0.0112031,0.0112031,0.0112031,0.0112031,0.0112031,0.0112031,0.0112031,0.0112031,0.0112031,-0.952183,0.988797,-0.688501,1.53571,-0.0224201,-0.00781047,-0.0153275,-0.000411312,0.0014584,0.00126012,0.00168046,-0.00765145,-0.0074841,0.0112031,0.00102289,0.0156426,-0.00101124,0.00440362,0.00798519,0.0017394,-0.00337412,-0.00120766,-0.00132935,-0.00153659,0.000732859,0.0048604,0.00494344,5.30034e-05,0.0138412,-0.000411312,0.0014584,0.00126012,0.00168046,-0.00765145,-0.0074841,0,0,0,0,0,0,0,0,0,-0.000624292,1.05214e-05,-0.000385005,-0.000643356,-0.000315094,0.000389477,9.2191e-06,9.8554e-05,0.00021363,0.000673351,-0.00016774,-2.96919e-05
439,0.00051179,0.000955492,0.00208221,-0.00891244,0.121864,0.121864,0.121864,0.121864,0.121864,0.121864,0.121864,0.121864,0.121864,-0.871864,-0.618846,0.409242,1.14481,0.000955492,0.00208221,-0.00891244,0.000211336,0.00101162,0.00157999,-0.00541717,-0.00187217,0.00938301,0.121864,0.0113729,-0.207814,0.00261468,-0.0225342,-0.0236356,-0.0177507,0.192803,0.230494,-0.0101699,0.0236059,-0.0017822,0.0592204,-0.00315394,0.023051,-0.243111,0.000211336,0.00101162,0.00157999,-0.00541717,-0.00187217,0.00938301,0,0,0,0,0,0,0,0,0,-0.000438891,2.5116e-05,-0.000475165,-0.000371024,-0.000329519,0.000511428,-0.00011074,-1.54751e-05,0.000315972,0.000209317,-2.10686e-05,0.000129365
440,0.00051179,-0.0502454,0.0181428,-0.0815966,0.0238371,0.0238371,0.0238371,0.0238371,0.0238371,0.0238371,0.0238371,0.0238371,0.0238371,-0.773837,-0.942537,-0.24598,1.24407,-0.0502454,0.0181428,-0.0815966,-0.0712235,0.0110814,0.048718,0.0226065,-0.0918395,0.0929599,0.0238371,1.12206e-05,0.316146,-0.00662699,0.307492,-0.0762798,-0.00334857,0.0260918,-0.189621,-0.000555204,0.134436,-0.0322205,-0.37034,-0.460071,0.0651829,0.425845,-0.0712235,0.0110814,0.048718,0.0226065,-0.0918395,0.0929599,0,0,0,0,0,0,0,0,0,-0.000953525,-0.00048181,0.000662123,-0.00153483,-0.000554586,-0.000617579,-1.54918e-05,-0.00119163,0.000434838,0.00198852,-4.89717e-05,0.000664966
441,0.00051179,0.0161152,-0.00409895,0.00299404,0.0029967,0.0029967,0.0029967,0.0029967,0.0029967,0.0029967,0.0029967,0.0029967,0.0029967,-0.752997,0.432249,0.877602,1.23452,0.0161152,-0.00409895,0.00299404,0.0209553,-0.00584701,-0.00836868,-0.00238153,0.00173178,0.0140545,0.0029967,0.000315621,-0.0163678,-0.000128143,-0.000353942,-9.49134e-06,0.000530645,0.00125717,0.000262021,-0.000819461,-0.000599715,-0.000480471,-4.26648e-05,0.0050526,-0.000558112,-0.00420854,0.0209553,-0.00584701,-0.00836868,-0.00238153,0.00173178,0.0140545,0,0,0,0,0,0,0,0,0,-0.000650145,6.99319e-05,0.000190451,-0.000311347,-0.000358576,-0.000250202,-5.24276e-05,1.95936e-05,0.000349998,0.000232967,-7.08054e-06,3.10592e-05
442,0.00051179,0.00514575,0.0291952,0.00196171,0.0237976,0.0237976,0.0237976,0.0237976,0.0237976,0.0237976,0.0237976,0.0237976,0.0237976,-0.773798,0.619474,-0.53335,1.1256,0.00514575,0.0291952,0.00196171,-0.00205907,-1.93417e-05,0.00511013,0.0200621,0.018708,0.00684919,0.0237976,0.000439003,-0.00343947,-0.0005657,0.0134084,-0.001164,-8.36365e-05,0.0201541,-0.000542277,0.0128228,-0.0485238,-0.00303934,0.00534347,0.00592022,-0.00344236,-0.0274593,-0.00205907,-1.93417e-05,0.00511013,0.0200621,0.018708,0.00684919,0,0,0,0,0,0,0,0,0,-0.000554048,-4.81061e-05,-0.000411046,-0.00046539,-0.000230635,0.000405195,0.000124419,0.000185439,0.000355385,0.000515655,-2.87527e-05,-2.29717e-05
443,0.00051179,-0.0233372,0.0134009,0.0225418,0.00639903,0.00639903,0.00639903,0.00639903,0.00639903,0.00639903,0.00639903,0.00639903,0.00639903,-0.756399,0.498003,-0.417543,0.99724,-0.0233372,0.0134009,0.0225418,-0.0433058,0.00691857,-0.0231674,0.0273093,0.0115055,0.00455765,0.00639903,0.000608459,0.0202244,3.10019e-05,0.00208186,-3.18363e-05,-0.000562437,0.0157278,0.00314457,0.0220507,-0.0271492,-0.00330941,0.0198698,0.0116665,-0.0086225,-0.0581394,-0.0433058,0.00691857,-0.0231674,0.0273093,0.0115055,0.00455765,0,0,0,0,0,0,0,0,0,-0.000566073,-0.000216484,-0.000378047,-0.000556159,-0.000229174,0.000447543,0.000243803,0.000119281,0.000362933,0.000318861,-3.73206e-05,-2.33218e-05
444,0.00051179,0.0109197,-0.0107589,0.0023711,0.00583586,0.00583586,0.00583586,0.00583586,0.00583586,0.00583586,0.00583586,0.00583586,0.00583586,-0.755836,0.878056,0.961264,1.50542,0.0109197,-0.0107589,0.0023711,0.022347,-0.00981697,-0.00533991,0.0078641,0.00910868,0.00674683,0.00583586,0.000644162,-0.0079801,-0.000334077,0.00465611,3.78413e-05,0.000219177,-1.69082e-05,-0.00297744,-0.000985043,0.00128343,-0.000120996,-0.000388312,0.0048194,-0.000927877,-0.00196588,0.022347,-0.00981697,-0.00533991,0.0078641,0.00910868,0.00674683,0,0,0,0,0,0,0,0,0,-0.000582866,7.37759e-05,0.000253037,-0.000400119,-0.000363225,-0.000354547,-6.78449e-06,9.20293e-05,0.000350438,0.000348912,-2.15246e-06,-1.2085e-05
445,0.00051179,-0.0143071,0.00342509,-0.00839201,0.0717967,0.0717967,0.0717967,0.0717967,0.0717967,0.0717967,0.0717967,0.0717967,0.0717967,-0.821797,0.781258,-0.374813,1.19424,-0.0143071,0.00342509,-0.00839201,-0.0136538,-0.0054984,0.00578535,0.000452583,0.0245653,0.00348419,0.0717967,-0.00456856,0.133323,0.0021667,-0.0590935,-0.0109012,-0.00785795,0.135182,-0.108114,0.0254495,-0.123231,0.0152201,0.0141184,0.178899,-0.0144002,-0.140908,-0.0136538,-0.0054984,0.00578535,0.000452583,0.0245653,0.00348419,0,0,0,0,0,0,0,0,0,-0.000727355,-8.73777e-05,-0.000624508,-0.000729656,-0.000193859,0.000591191,0.000133244,0.000374213,0.000320241,0.000708929,2.36413e-05,-5.08457e-05
446,0.00051179,0.023601,-0.00738753,-0.00552493,0.084291,0.084291,0.084291,0.084291,0.084291,0.084291,0.084291,0.084291,0.084291,-0.834291,-0.121437,-0.197243,0.865848,0.023601,-0.00738753,-0.00552493,-0.011818,0.0139956,-0.000593505,0.0173375,0.0129012,0.00165842,0.084291,-0.104846,0.566891,0.0175091,-0.174282,-0.205997,-0.0787612,-0.380763,-0.384495,-0.102955,-0.00869644,0.0107568,-0.201938,0.190366,-0.0411171,0.588226,-0.011818,0.0139956,-0.000593505,0.0173375,0.0129012,0.00165842,0,0,0,0,0,0,0,0,0,-0.000609808,-0.000304388,0.000308972,-0.00086997,-0.000307733,6.07482e-06,-0.000149155,0.000169818,0.000344299,7.64237e-05,6.67619e-05,8.16368e-05
447,0.00051179,0.00555259,-0.00748682,-0.0126688,0.110262,0.110262,0.110262,0.110262,0.110262,0.110262,0.110262,0.110262,0.110262,-0.889738,-0.340398,-0.184489,0.970331,0.00555259,-0.00748682,-0.0126688,-0.00157271,-0.00293478,0.00662111,0.000901863,-0.0118006,-0.00313984,0.110262,-0.338239,-0.557974,0.0733051,0.169769,-0.0328827,-0.145372,-1.26137,0.585305,-0.0834684,0.0872529,0.0315542,-0.0859605,-0.249535,0.000962369,1.36,-0.00157271,-0.00293478,0.00662111,0.000901863,-0.0118006,-0.00313984,0,0,0,0,0,0,0,0,0,-0.000687793,-0.00120919,0.000554264,-0.000941711,-0.00030064,0.000149439,7.70398e-05,0.000118492,0.000336163,-0.000445801,7.90432e-05,0.000478985
448,0.00051179,-0.00341782,0.000351688,0.00185869,0.0560604,0.0560604,0.0560604,0.0560604,0.0560604,0.0560604,0.0560604,0.0560604,0.0560604,-0.94394,-0.728397,0.788325,1.42935,-0.00341782,0.000351688,0.00185869,-0.00282955,-0.000659101,-0.00199651,0.00544764,0.00897817,0.0038902,0.0560604,0.00109287,-0.012518,0.000604816,-0.00474113,0.00164292,-0.000330102,0.0145501,0.0142929,-0.000251638,-0.00237809,-0.00090092,-0.000486578,0.00676753,-0.00116685,-0.0159222,-0.00282955,-0.000659101,-0.00199651,0.00544764,0.00897817,0.0038902,0,0,0,0,0,0,0,0,0,-0.000525869,-1.58173e-05,-0.00034255,-0.00037029,-0.000359679,0.000342007,1.88462e-05,2.93632e-05,0.000305213,0.000347024,5.14093e-05,6.48287e-06
449,0.00051179,0.00779247,0.0107297,0.0192803,0.10821,0.10821,0.10821,0.10821,0.10821,0.10821,0.10821,0.10821,0.10821,-0.85821,-0.333159,0.123233,0.928819,0.00779247,0.0107297,0.0192803,0.013355,0.0109178,-0.00478689,-0.010195,-0.003909,-0.000482976,0.10821,0.537951,3.38744,-0.128157,-1.31597,0.0339174,-0.05611,-1.58298,-3.42915,0.149622,-0.0292996,0.0194182,-0.0741194,1.33454,-0.0884467,1.63782,0.013355,0.0109178,-0.00478689,-0.010195,-0.003909,-0.000482976,0,0,0,0,0,0,0,0,0,-0.000335269,0.00206214,-0.000786581,-2.48519e-05,-0.000432963,-0.000385814,2.74721e-06,0.000113952,0.000350513,-0.000584117,4.11399e-05,-0.00113904
450,0.00051179,-0.0151591,0.00413065,-0.000336021,0.111303,0.111303,0.111303,0.111303,0.111303,0.111303,0.111303,0.111303,0.111303,-0.861303,-0.329307,-0.326097,0.978072,-0.0151591,0.00413065,-0.000336021,-0.00330578,0.00347644,-0.00151151,-0.0025953,0.0169183,-0.00414337,0.111303,-0.0327985,0.640446,0.00205506,-0.101613,-0.000463261,-0.0465817,0.489073,-0.624824,0.000165684,-0.0718697,0.000851868,-0.0162063,0.169352,-0.0475062,-0.472531,-0.00330578,0.00347644,-0.00151151,-0.0025953,0.0169183,-0.00414337,0,0,0,0,0,0,0,0,0,-0.000552692,-7.64634e-05,0.000270178,-0.000751818,-0.000327641,-0.000214863,9.19097e-05,0.000110809,0.000332892,0.000270886,6.68933e-05,-0.00015419
451,0.00051179,-0.00869003,0.0323761,-0.00201774,0.116246,0.116246,0.116246,0.116246,0.116246,0.116246,0.116246,0.116246,0.116246,-0.883754,-0.74165,0.198751,1.17071,-0.00869003,0.0323761,-0.00201774,0.000711322,0.00518161,0.0121943,-0.00365087,0.00287606,0.00633372,0.116246,0.381812,0.488669,0.055571,-0.0677412,-0.285494,-0.14702,-1.92812,-0.194485,0.0139874,0.194678,-0.0235221,0.272311,-0.159312,0.00389999,1.65783,0.000711322,0.00518161,0.0121943,-0.00365087,0.00287606,0.00633372,0,0,0,0,0,0,0,0,0,-0.000222996,0.00144751,-0.000361924,-0.000959414,-0.000291968,0.00096945,-0.000413425,-2.8045e-05,0.000305273,-0.000388842,-0.000178416,-0.000413939
452,0.00051179,0.0113207,0.00172725,-0.00465868,0.0126088,0.0126088,0.0126088,0.0126088,0.0126088,0.0126088,0.0126088,0.0126088,0.0126088,-0.762609,0.883518,-0.75713,1.39119,0.0113207,0.00172725,-0.00465868,-0.0114407,0.00346931,6.27711e-06,-0.00361419,0.00716488,0.00381013,0.0126088,0.00102879,-0.0112115,-0.000352435,0.0149948,-0.000529137,0.000336036,0.00269532,0.000419859,0.00185193,-0.00902409,-0.000275872,0.0044577,-0.00769795,0.00210953,-0.00249434,-0.0114407,0.00346931,6.27711e-06,-0.00361419,0.00716488,0.00381013,0,0,0,0,0,0,0,0,0,-0.000543945,-4.48427e-05,-0.000349267,-0.000590107,-0.000258738,0.000380436,-1.59461e-06,0.000163762,0.000344023,0.00059353,-9.48715e-05,3.6815e-05
453,0.00051179,0.0106012,0.00506059,-0.00752488,0.0287316,0.0287316,0.0287316,0.0287316,0.0287316,0.0287316,0.0287316,0.0287316,0.0287316,-0.778732,0.0864877,-0.908261,1.19952,0.0106012,0.00506059,-0.00752488,-0.011302,0.00090767,0.00105691,0.00550059,-0.00045298,-0.0047516,0.0287316,0.000711516,-0.00860029,-0.000386916,0.00253076,0.000154418,0.000783782,-0.0053438,-0.00215535,0.00191833,-0.00201419,-0.000432121,0.000447597,-0.00557716,0.000659227,0.0124211,-0.011302,0.00090767,0.00105691,0.00550059,-0.00045298,-0.0047516,0,0,0,0,0,0,0,0,0,-0.000310622,-4.45711e-05,-4.35704e-05,-0.000320466,-0.000300908,4.8778e-05,4.54761e-05,1.60324e-05,0.000379167,0.000338873,-2.48834e-05,-1.20803e-05
454,0.00051179,-0.0167527,-0.00177878,0.00045085,0.108075,0.108075,0.108075,0.108075,0.108075,0.108075,0.108075,0.108075,0.108075,-0.858075,-0.575725,-0.0903527,1.03726,-0.0167527,-0.00177878,0.00045085,-0.00518984,-0.0133162,0.013992,0.00552848,-0.00820716,-0.00872898,0.108075,-0.878623,-8.11608,0.0555112,1.00175,0.849009,0.102368,-0.450858,7.28383,-0.105829,-0.292144,-0.000103283,-0.234656,-0.707828,0.173238,0.685063,-0.00518984,-0.0133162,0.013992,0.00552848,-0.00820716,-0.00872898,0,0,0,0,0,0,0,0,0,-0.000924073,-0.00347337,0.000390857,0.00190621,-0.000354702,3.10929e-05,0.000444193,-3.2346e-05,0.000413761,-0.000742616,-5.07584e-05,0.00176824
455,0.00051179,0.0722446,0.103927,-0.0740509,0.0170474,0.0170474,0.0170474,0.0170474,0.0170474,0.0170474,0.0170474,0.0170474,0.0170474,-0.767047,-0.461838,0.097745,0.900672,0.0722446,0.103927,-0.0740509,-0.119333,0.0211187,0.169223,0.0524279,-0.0293366,0.0231727,0.0170474,1.87447,20.3282,-0.307534,-3.31894,-1.05963,-0.327376,-9.6179,-19.3409,0.395995,0.0539291,0.0788435,0.0754044,3.16109,0.170435,9.61654,-0.119333,0.0211187,0.169223,0.0524279,-0.0293366,0.0231727,0,0,0,0,0,0,0,0,0,0.000155278,0.0060097,-0.00165073,0.0011301,-0.000472898,-0.00121342,-0.000523842,0.000212784,0.000238881,-0.00271164,0.000282285,-0.00179792
456,0.00051179,-0.000631995,-0.00132765,-0.0104872,0.0113524,0.0113524,0.0113524,0.0113524,0.0113524,0.0113524,0.0113524,0.0113524,0.0113524,-0.988648,0.0334713,0.963062,1.38059,-0.000631995,-0.00132765,-0.0104872,-0.00439737,-3.26079e-05,0.0011982,0.0088036,-0.00161765,-0.000342544,0.0113524,0.00126268,-0.00215372,-9.54196e-05,-0.00326468,0.000210744,-0.000324488,0.0143906,0.00257497,0.00226523,-0.000509538,0.000104811,-0.000552565,0.00510187,-0.00169827,-0.00335086,-0.00439737,-3.26079e-05,0.0011982,0.0088036,-0.00161765,-0.000342544,0,0,0,0,0,0,0,0,0,-0.000709839,-2.24734e-05,-1.09026e-05,-0.000264887,-0.000333244,9.6223e-06,4.85441e-05,1.41111e-05,0.000293039,0.000273624,-2.92395e-05,-1.70041e-05
457,0.00051179,-0.0198513,0.00245846,-0.0113088,0.0589337,0.0589337,0.0589337,0.0589337,0.0589337,0.0589337,0.0589337,0.0589337,0.0589337,-0.941066,-0.684467,-0.208002,1.1821,-0.0198513,0.00245846,-0.0113088,-0.00307851,0.0046991,0.0317952,-0.00389706,0.0114586,0.00349349,0.0589337,-0.347806,-0.788268,-0.0468093,0.0850721,0.344101,-0.116106,-1.09832,0.464018,-0.0379819,-0.183363,-0.00677343,0.134937,0.0958323,0.00486645,0.974689,-0.00307851,0.0046991,0.0317952,-0.00389706,0.0114586,0.00349349,0,0,0,0,0,0,0,0,0,-0.000755116,-0.00131088,0.000427807,-0.000467838,-0.000357056,-0.000848909,0.000234147,-0.000107409,0.00032717,-0.000375268,0.000154261,0.000485342
458,0.00051179,0.0167099,-0.0258837,0.0718603,0.0162846,0.0162846,0.0162846,0.0162846,0.0162846,0.0162846,0.0162846,0.0162846,0.0162846,-0.653143,0.46815,-0.0837154,0.807941,0.0167099,-0.0258837,0.0718603,0.0818533,0.0920679,-0.193251,-0.0564343,-0.00828734,-0.0315726,0.0162846,-5.01257,-3.40314,-1.17303,-7.15128,3.14978,-0.312601,8.67127,0.236643,-1.10731,-0.0825297,0.0840891,0.035465,7.25969,-0.247276,-8.7786,0.0818533,0.0920679,-0.193251,-0.0564343,-0.00828734,-0.0315726,0,0,0,0,0,0,0,0,0,-0.00256027,-0.0172998,-0.0051313,0.0206524,-0.000823045,-0.00567835,0.00153509,0.00403205,-0.00116483,-0.025711,-0.00327404,0.00595958
459,0.00051179,-0.00460276,-0.0294876,4.49121e-05,0.0932676,0.0932676,0.0932676,0.0932676,0.0932676,0.0932676,0.0932676,0.0932676,0.0932676,-0.906732,0.12583,-0.260558,0.951781,-0.00460276,-0.0294876,4.49121e-05,-0.00315587,-0.00639569,-0.00224514,0.0033949,-0.00348167,-0.000970611,0.0932676,-0.0640222,0.267735,-0.0125493,0.109315,-0.0830953,-0.0458728,-0.184528,-0.180037,-0.0373468,0.0486632,-0.014969,-0.0729527,-0.128491,-0.012065,0.257436,-0.00315587,-0.00639569,-0.00224514,0.0033949,-0.00348167,-0.000970611,0,0,0,0,0,0,0,0,0,-0.000551492,-0.000204161,-0.000164738,-0.000564958,-0.000332618,-2.47122e-05,-3.80298e-05,-0.000116598,0.000324398,8.37782e-05,-6.79089e-05,6.65514e-05
460,0.00051179,-0.00106059,-0.00112017,0.00266848,0.0674471,0.0674471,0.0674471,0.0674471,0.0674471,0.0674471,0.0674471,0.0674471,0.0674471,-0.932553,-0.101238,0.855854,1.2698,-0.00106059,-0.00112017,0.00266848,-0.00575387,-0.00140147,-0.00129576,0.00662272,-0.000800237,0.00316123,0.0674471,0.00120951,-0.00685633,0.000282653,-0.00452535,0.000279012,-0.000284016,0.0107729,0.00763791,0.000329627,0.000796521,-0.000376466,-0.000369655,0.004849,-0.000427451,-0.0130717,-0.00575387,-0.00140147,-0.00129576,0.00662272,-0.000800237,0.00316123,0,0,0,0,0,0,0,0,0,-0.000679478,-2.86546e-05,-6.49442e-05,-0.000241128,-0.000338459,5.3756e-05,2.88289e-05,1.54524e-05,0.000310995,0.00022533,-2.72194e-05,7.73609e-06
461,0.00051179,-0.000594638,0.0133404,0.0078431,0.0622147,0.0622147,0.0622147,0.0622147,0.0622147,0.0622147,0.0622147,0.0622147,0.0622147,-0.812215,0.718899,0.458133,1.17745,-0.000594638,0.0133404,0.0078431,0.00275427,-0.00159422,0.00400558,-0.0051886,0.0138249,0.00718269,0.0622147,0.00140996,-0.0339589,-0.00215953,0.032519,-0.00498138,-0.00364869,0.0754131,0.0395349,-0.0139717,0.0216993,0.0046015,0.0144884,-0.0675587,0.00782153,-0.0977446,0.00275427,-0.00159422,0.00400558,-0.0051886,0.0138249,0.00718269,0,0,0,0,0,0,0,0,0,-0.000416331,2.08117e-05,0.000486718,-0.000468853,-0.000389868,-0.000524256,-9.58108e-05,0.000131486,0.000317007,0.000472422,5.27788e-05,7.50117e-05
462,0.00051179,0.00753683,0.000584942,-0.00116449,0.0319423,0.0319423,0.0319423,0.0319423,0.0319423,0.0319423,0.0319423,0.0319423,0.0319423,-0.781942,-0.7011,0.840243,1.34498,0.00753683,0.000584942,-0.00116449,0.000697188,0.000408843,-0.00249254,-0.0036575,-0.00578135,0.00467924,0.0319423,0.000472859,-0.00804678,3.88175e-06,-0.00273447,-1.6772e-06,0.000396743,0.00156077,0.00051163,-0.000739323,-0.000784953,-0.000758132,-5.08625e-05,0.00293449,-0.000748891,-0.000345417,0.000697188,0.000408843,-0.00249254,-0.0036575,-0.00578135,0.00467924,0,0,0,0,0,0,0,0,0,-0.000554763,5.03842e-06,-0.000310613,-0.000376079,-0.000307823,0.000314741,-2.27959e-05,-3.77999e-05,0.000366159,0.000355122,-2.7595e-05,1.88399e-05
463,0.00051179,-0.00680398,0.000159375,0.00469907,0.0278088,0.0278088,0.0278088,0.0278088,0.0278088,0.0278088,0.0278088,0.0278088,0.0278088,-0.777809,0.681906,-0.369695,1.09848,-0.00680398,0.000159375,0.00469907,-0.0257206,-0.00826924,-2.94e-05,0.0171622,0.0215098,0.00647287,0.0278088,0.000166968,0.0758077,0.000748165,-0.040472,-0.00382186,-0.00324297,0.17089,-0.0651819,0.0325516,-0.0774824,0.00694122,0.0371337,0.117795,-0.0131684,-0.212723,-0.0257206,-0.00826924,-2.94e-05,0.0171622,0.0215098,0.00647287,0,0,0,0,0,0,0,0,0,-0.000677355,-0.00014792,-0.000549435,-0.000736566,-0.000186646,0.000474224,0.000228418,0.000251274,0.000347413,0.000703842,3.32356e-05,-5.36293e-05
464,0.00051179,0.00929284,0.0063263,-0.0202776,0.101742,0.101742,0.101742,0.101742,0.101742,0.101742,0.101742,0.101742,0.101742,-0.898258,0.454388,-0.377449,1.07508,0.00929284,0.0063263,-0.0202776,-0.00547477,-0.00181367,0.0042697,0.00313661,-0.00449982,-0.00680358,0.101742,-0.0375981,0.576207,0.00216705,0.0155418,0.0167408,-0.0436752,0.398298,-0.602241,0.00865061,0.0647938,-0.0066556,0.0368692,-0.0866619,-0.0380366,-0.41489,-0.00547477,-0.00181367,0.0042697,0.00313661,-0.00449982,-0.00680358,0,0,0,0,0,0,0,0,0,-0.000557981,-0.000127527,-0.00033659,-0.000565053,-0.000290418,0.000340124,0.000146774,-2.91178e-05,0.000302494,0.000170998,-8.24363e-05,-0.000136363
465,0.00051179,-0.00114247,-0.0013152,0.000741099,0.0688858,0.0688858,0.0688858,0.0688858,0.0688858,0.0688858,0.0688858,0.0688858,0.0688858,-0.931114,-0.636597,-0.675461,1.31472,-0.00114247,-0.0013152,0.000741099,-0.00269034,0.00215682,0.000213124,-0.00591956,0.004961,0.00291083,0.0688858,-0.000655398,0.0267576,-0.00206696,0.0117625,-0.00245319,-0.00115557,0.00653021,-0.0231619,0.00124387,0.00737806,-0.00164783,-0.00108129,-0.0178254,-0.00145417,-0.00619002,-0.00269034,0.00215682,0.000213124,-0.00591956,0.004961,0.00291083,0,0,0,0,0,0,0,0,0,-0.000495501,-9.15395e-06,0.000360259,-0.000402708,-0.000299865,-0.00035936,-1.58037e-05,-8.09152e-05,0.000309996,0.000393283,0.000114047,1.4858e-05
466,0.00051179,0.00588145,-0.00236808,0.00284491,0.00501557,0.00501557,0.00501557,0.00501557,0.00501557,0.00501557,0.00501557,0.00501557,0.00501557,-0.877619,0.797764,0.994984,1.54811,0.00588145,-0.00236808,0.00284491,0.00265722,-0.00163245,0.00485645,0.00495663,0.000981948,0.00570198,0.00501557,0.000966862,-0.00230654,-0.000496976,-0.00111916,-0.000528488,0.000383034,-0.00123241,-0.00304643,-0.000941576,0.00017774,-0.000129015,-0.000520454,0.0033095,-0.00137496,-0.00109204,0.00265722,-0.00163245,0.00485645,0.00495663,0.000981948,0.00570198,0,0,0,0,0,0,0,0,0,-0.000618167,4.31329e-06,0.000218799,-0.000379085,-0.000327611,-0.000240093,6.26818e-06,5.76534e-05,0.000298977,0.00043148,-4.91241e-05,7.828e-06
467,0.00051179,0.00994315,-0.00440209,-0.0094393,0.00720752,0.00720752,0.00720752,0.00720752,0.00720752,0.00720752,0.00720752,0.00720752,0.00720752,-0.820382,0.992792,0.521271,1.38938,0.00994315,-0.00440209,-0.0094393,-0.000648799,-0.00653302,-0.00953091,0.0156699,-0.0059261,0.011405,0.00720752,0.000783876,0.0203785,-0.000264876,-0.00406927,0.0106452,0.00118098,-0.0464536,-0.0409669,-0.00210326,0.0217614,0.000626038,-0.00778172,-0.01329,-0.00399144,0.0636746,-0.000648799,-0.00653302,-0.00953091,0.0156699,-0.0059261,0.011405,0,0,0,0,0,0,0,0,0,-0.000318505,-2.36884e-05,0.000424386,-0.000654541,-0.000382805,-0.000492365,4.34696e-05,0.00015588,0.000310533,0.000571041,-0.000208881,1.27038e-05
468,0.00051179,-0.0160681,-0.00359696,-0.000177637,0.100831,0.100831,0.100831,0.100831,0.100831,0.100831,0.100831,0.100831,0.100831,-0.850831,0.148795,-0.364955,0.937681,-0.0160681,-0.00359696,-0.000177637,-0.00235431,0.0015414,-0.00189426,-0.0076435,-0.0103087,0.00274164,0.100831,-0.00874369,0.198116,5.06118e-05,-0.00881012,0.00234959,-0.0175955,0.224929,-0.184397,0.0138192,0.0403891,-0.00782709,-0.0063877,-0.027982,-0.02424,-0.218364,-0.00235431,0.0015414,-0.00189426,-0.0076435,-0.0103087,0.00274164,0,0,0,0,0,0,0,0,0,-0.000501357,-2.50046e-05,-0.000125291,-0.000511214,-0.000314111,0.000141211,6.13637e-05,-0.000115805,0.000338845,0.000316317,-6.55534e-05,-7.70063e-05
469,0.00051179,-0.00905406,0.0128472,0.118494,0.0144235,0.0144235,0.0144235,0.0144235,0.0144235,0.0144235,0.0144235,0.0144235,0.0144235,-0.764424,-0.315553,-0.206673,0.852426,-0.00905406,0.0128472,0.118494,0.0151903,0.0214199,-0.0758485,-0.00614145,0.0796069,-0.0788258,0.0144235,-0.0145639,1.97392,0.00230158,-0.322766,0.0136243,-0.039125,3.67349,-1.97849,-0.023516,-0.386421,0.00798865,0.0370185,0.69634,-0.15384,-3.829,0.0151903,0.0214199,-0.0758485,-0.00614145,0.0796069,-0.0788258,0,0,0,0,0,0,0,0,0,-0.000709601,0.000305089,0.000702043,-0.00231405,-0.00032031,-0.000464828,0.00015367,0.000736469,0.000346735,0.00116431,0.000139486,-0.00086137
470,0.00051179,-0.00154326,0.00643326,-0.00581158,0.078653,0.078653,0.078653,0.078653,0.078653,0.078653,0.078653,0.078653,0.078653,-0.828653,0.554595,-0.669027,1.20077,-0.00154326,0.00643326,-0.00581158,-0.00656604,0.000575636,0.00113539,0.00407251,0.00555697,-0.00389889,0.078653,0.000711754,0.00697642,-0.000848524,0.0089763,0.000545619,-0.0008705,0.012752,-0.00597878,0.00525693,-0.00985709,-0.00113741,0.00188807,-0.00555247,0.000664178,-0.00882853,-0.00656604,0.000575636,0.00113539,0.00407251,0.00555697,-0.00389889,0,0,0,0,0,0,0,0,0,-0.000471137,-2.95489e-05,-0.000311057,-0.000405101,-0.000274951,0.000308328,4.63698e-05,0.000105652,0.00033734,0.00040775,-6.14562e-05,-1.6451e-05
471,0.00051179,0.0019602,0.00203027,0.00337168,0.0682227,0.0682227,0.0682227,0.0682227,0.0682227,0.0682227,0.0682227,0.0682227,0.0682227,-0.931777,-0.337599,0.698923,1.21271,0.0019602,0.00203027,0.00337168,-0.00199086,-0.00116479,-0.00082507,0.00765206,0.00235072,0.00111909,0.0682227,0.00123234,-0.0154461,0.000353403,0.00106863,-0.00131086,-0.00179825,0.0293377,0.0147968,0.000581963,0.000533963,-0.000725057,0.00105219,-0.00363287,0.00276404,-0.0337616,-0.00199086,-0.00116479,-0.00082507,0.00765206,0.00235072,0.00111909,0,0,0,0,0,0,0,0,0,-0.000611626,-1.68987e-05,-0.000202339,-0.000236702,-0.000348413,0.000194225,2.8064e-05,2.93915e-05,0.000314593,0.000210469,-1.31349e-05,6.3095e-06
472,0.00051179,0.0025996,0.00306882,-0.00636232,0.0324019,0.0324019,0.0324019,0.0324019,0.0324019,0.0324019,0.0324019,0.0324019,0.0324019,-0.782402,0.681226,-0.794048,1.30642,0.0025996,0.00306882,-0.00636232,-0.00895024,-0.00105483,-0.00209336,0.000354707,0.00692799,-0.000887434,0.0324019,0.000699952,0.000853904,-0.000453584,0.00635694,-4.39454e-05,4.19803e-05,0.00172252,-0.00340956,0.0018705,-0.00245956,-0.000666614,0.00144609,-0.0069662,0.00126682,0.0031937,-0.00895024,-0.00105483,-0.00209336,0.000354707,0.00692799,-0.000887434,0,0,0,0,0,0,0,0,0,-0.000457622,-3.47372e-05,-0.000304653,-0.00046307,-0.000272447,0.000289569,1.76403e-05,0.000134584,0.00034894,0.000442557,-7.19699e-05,8.41119e-06
473,0.00051179,-0.0114328,-0.00758788,0.0122909,0.0100991,0.0100991,0.0100991,0.0100991,0.0100991,0.0100991,0.0100991,0.0100991,0.0100991,-0.989901,0.0540735,0.529962,1.12414,-0.0114328,-0.00758788,0.0122909,-0.00559212,0.00171109,-0.000927513,0.0059779,-0.00517111,0.00142449,0.0100991,0.0100534,-0.0658059,-0.00146996,-0.0051752,0.00180346,-0.0100334,0.0531638,0.0754352,0.0203639,-0.010571,0.00203624,-0.0102796,0.0233341,0.0111084,-0.0551751,-0.00559212,0.00171109,-0.000927513,0.0059779,-0.00517111,0.00142449,0,0,0,0,0,0,0,0,0,-0.000610583,-2.76967e-05,3.58901e-05,-0.000223409,-0.000336373,-3.34788e-05,8.17061e-05,-3.72454e-07,0.00029359,0.000113799,-3.09763e-05,1.26615e-05
474,0.00051179,0.00768304,-0.00195056,0.00139064,0.0266898,0.0266898,0.0266898,0.0266898,0.0266898,0.0266898,0.0266898,0.0266898,0.0266898,-0.77669,-0.691086,0.889914,1.3685,0.00768304,-0.00195056,0.00139064,0.00178305,3.71449e-05,-0.00280727,-0.00275339,-0.00584196,0.00586639,0.0266898,0.000740245,-0.00809362,-0.00019341,-0.00109398,7.51143e-06,0.000434797,0.000549651,0.000403065,-0.000981526,-0.000832265,-0.000573323,0.000247013,0.0038768,-0.000816736,-0.00218731,0.00178305,3.71449e-05,-0.00280727,-0.00275339,-0.00584196,0.00586639,0,0,0,0,0,0,0,0,0,-0.000576481,8.18797e-06,-0.000288451,-0.000383345,-0.00030824,0.000286889,-2.31031e-05,-3.54781e-05,0.000368714,0.000359621,-2.86747e-05,2.08198e-05
475,0.00051179,0.00785413,0.00667817,0.00140363,0.0536346,0.0536346,0.0536346,0.0536346,0.0536346,0.0536346,0.0536346,0.0536346,0.0536346,-0.946365,0.201442,-0.431879,1.05958,0.00785413,0.00667817,0.00140363,-0.00197485,-0.0010271,-0.000391785,0.0105755,-0.00827981,-0.000132065,0.0536346,-0.0189483,0.17658,0.000921912,-0.00814734,-0.00159429,-0.022583,0.106583,-0.18284,-0.0164867,0.0179468,-0.00594804,-0.0115581,-0.0164776,-0.0144462,-0.0964288,-0.00197485,-0.0010271,-0.000391785,0.0105755,-0.00827981,-0.000132065,0,0,0,0,0,0,0,0,0,-0.000472538,-5.6832e-05,-0.000124926,-0.000413852,-0.000316942,0.000123874,1.82281e-05,-0.000100926,0.000316441,0.000184104,-4.13523e-05,-2.51078e-05
476,0.00051179,-0.002279,0.000523897,0.0020491,0.0953836,0.0953836,0.0953836,0.0953836,0.0953836,0.0953836,0.0953836,0.0953836,0.0953836,-0.904616,0.480678,-0.478405,1.1306,-0.002279,0.000523897,0.0020491,-0.00383729,-0.00123703,-0.0023586,-2.38698e-05,-0.00305892,-0.00286801,0.0953836,-0.00775014,0.138839,0.00023777,-0.0045212,0.00373715,-0.0121382,0.109907,-0.140298,0.0127184,0.0147595,-0.00246737,0.0262719,-0.0107622,-0.0116021,-0.138228,-0.00383729,-0.00123703,-0.0023586,-2.38698e-05,-0.00305892,-0.00286801,0,0,0,0,0,0,0,0,0,-0.000519633,-4.25182e-05,-0.000339215,-0.00040062,-0.000289822,0.000329222,7.88914e-05,2.24769e-05,0.000308543,0.000255652,-7.77398e-05,-5.69317e-05
477,0.00051179,0.0299165,-0.000623107,0.017565,0.0258881,0.0258881,0.0258881,0.0258881,0.0258881,0.0258881,0.0258881,0.0258881,0.0258881,-0.775888,0.143794,0.108985,0.796591,0.0299165,-0.000623107,0.017565,-0.00455647,-0.000555411,0.0569599,-0.0161298,0.00551585,-0.00842369,0.0258881,0.399776,2.89979,0.157428,1.34415,1.03614,-0.0847832,-2.57149,-3.96585,0.282852,0.240714,-0.0509548,-0.308439,-1.58424,0.0132479,2.86237,-0.00455647,-0.000555411,0.0569599,-0.0161298,0.00551585,-0.00842369,0,0,0,0,0,0,0,0,0,-0.000365473,0.00120675,0.00086969,2.07977e-05,-0.000250394,0.000699039,0.000564264,-0.00017475,0.000331983,-0.00029903,-0.000279639,-0.000745224
478,0.00051179,0.00269387,0.00946518,0.00945275,0.0876057,0.0876057,0.0876057,0.0876057,0.0876057,0.0876057,0.0876057,0.0876057,0.0876057,-0.912394,-0.717588,0.460631,1.24883,0.00269387,0.00946518,0.00945275,0.000666855,0.000455227,-0.000378301,0.00136792,0.00172889,0.00393703,0.0876057,0.00823535,-0.0859417,0.00399835,-0.0420248,-0.0167748,-0.00990877,0.0719656,0.100023,-0.000594871,-0.00456319,-0.00434607,0.0277951,0.0371228,0.011648,-0.109213,0.000666855,0.000455227,-0.000378301,0.00136792,0.00172889,0.00393703,0,0,0,0,0,0,0,0,0,-0.000408702,1.53646e-05,-0.000524094,-0.000369462,-0.0003474,0.00056863,-2.52812e-05,-5.69616e-05,0.000311255,0.000266592,3.07898e-05,4.87786e-05
479,0.00051179,0.0575061,-0.0221031,-0.00812495,0.119274,0.119274,0.119274,0.119274,0.119274,0.119274,0.119274,0.119274,0.119274,-0.880726,0.771981,0.0767683,1.17368,0.0575061,-0.0221031,-0.00812495,-0.00969444,0.00843129,0.0117886,-0.00405195,-0.00744176,-0.000502467,0.119274,0.64917,5.82825,-0.0878835,-0.416355,-0.426468,0.312945,0.999817,-5.45929,0.0399396,-0.33514,-0.0492975,-0.0634778,0.773598,-0.193776,-0.928214,-0.00969444,0.00843129,0.0117886,-0.00405195,-0.00744176,-0.000502467,0,0,0,0,0,0,0,0,0,-0.00028082,0.00264228,4.82484e-05,0.00282342,-0.000363493,-0.000842771,-0.000375659,-0.000735481,0.000423864,0.00042392,0.000168088,-0.00152649
480,0.00051179,-0.00447227,-5.42714e-05,0.000680253,0.0640996,0.0640996,0.0640996,0.0640996,0.0640996,0.0640996,0.0640996,0.0640996,0.0640996,-0.8141,0.00173187,0.444348,0.927473,-0.00447227,-5.42714e-05,0.000680253,-0.00133354,0.00032429,0.00201798,0.00261887,-0.000580549,-0.00409566,0.0640996,0.0011986,-0.0360022,-0.000176542,0.00811516,0.00113761,-0.00449069,0.0543858,0.0393369,-0.00406973,-0.0107215,-0.000405352,-0.00573276,0.00266065,0.00585267,-0.0493332,-0.00133354,0.00032429,0.00201798,0.00261887,-0.000580549,-0.00409566,0,0,0,0,0,0,0,0,0,-0.000594713,-8.72222e-07,9.80706e-06,-0.000263708,-0.000342006,-8.32957e-06,-7.45186e-06,1.94257e-05,0.000323772,0.000238981,-2.92847e-05,8.58748e-06
481,0.00051179,5.68959e-05,-0.00428617,0.000243618,0.124542,0.124542,0.124542,0.124542,0.124542,0.124542,0.124542,0.124542,0.124542,-0.875458,-0.715564,-0.770995,1.36854,5.68959e-05,-0.00428617,0.000243618,-0.00533632,0.00341909,0.00307657,-0.00314822,0.000283951,-3.95619e-05,0.124542,0.000419632,0.00449836,-0.00100698,0.00626451,-0.000171953,0.000300016,-0.00781869,-0.00438331,-0.000716554,0.00282071,-0.000287143,0.00186138,-0.00479906,1.17607e-05,0.0057137,-0.00533632,0.00341909,0.00307657,-0.00314822,0.000283951,-3.95619e-05,0,0,0,0,0,0,0,0,0,-0.000483669,-1.44189e-05,0.000339045,-0.000438319,-0.000308627,-0.000314924,-9.15935e-06,-0.000109828,0.00032454,0.000472085,0.000109796,1.00255e-05
482,0.00051179,-0.000223968,0.00360666,-0.00492152,0.0715841,0.0715841,0.0715841,0.0715841,0.0715841,0.0715841,0.0715841,0.0715841,0.0715841,-0.928416,-0.0588587,-0.758538,1.20033,-0.000223968,0.00360666,-0.00492152,-0.0041585,0.00105671,0.00114724,-0.00461301,-0.00171875,-0.000724372,0.0715841,-0.00139605,0.020813,-0.00200474,0.0119336,-0.000255692,-0.000490014,0.00409704,-0.0203333,0.000187097,0.00109232,-0.00165567,0.000840722,-0.0166325,-0.00113253,-1.62406e-05,-0.0041585,0.00105671,0.00114724,-0.00461301,-0.00171875,-0.000724372,0,0,0,0,0,0,0,0,0,-0.00035096,-1.41143e-05,2.80451e-05,-0.000317419,-0.000304008,-3.75254e-05,-8.47105e-06,-1.85578e-05,0.000332035,0.000323991,-1.51864e-05,4.37397e-06
483,0.00051179,-0.000499168,0.000404404,0.00163091,0.0694259,0.0694259,0.0694259,0.0694259,0.0694259,0.0694259,0.0694259,0.0694259,0.0694259,-0.930574,0.50094,0.924224,1.40396,-0.000499168,0.000404404,0.00163091,-0.0016795,-0.000250133,-0.00213114,0.00686202,-0.00236921,0.00520453,0.0694259,0.00120129,0.000197912,1.58623e-05,-0.00392768,-7.3017e-05,0.000414163,0.000746083,0.000374273,1.39307e-05,-0.000896747,-0.000259819,8.99464e-06,0.00442003,-0.00157413,-0.00238599,-0.0016795,-0.000250133,-0.00213114,0.00686202,-0.00236921,0.00520453,0,0,0,0,0,0,0,0,0,-0.000653617,-1.3962e-05,0.000196152,-0.000329359,-0.000322426,-0.000198494,2.28088e-05,1.72501e-05,0.000292912,0.000312189,-4.35403e-05,6.58108e-06
484,0.00051179,-0.00360172,-0.00148012,-0.000317775,0.0138579,0.0138579,0.0138579,0.0138579,0.0138579,0.0138579,0.0138579,0.0138579,0.0138579,-0.986142,-0.475688,0.842528,1.38152,-0.00360172,-0.00148012,-0.000317775,0.00171234,-0.00121916,-0.00161176,0.0134877,0.00459008,0.00375884,0.0138579,0.0013559,-0.0131195,0.00073833,-0.00684066,-0.000218445,-0.000702105,0.0263078,0.0169396,0.00108559,0.00242077,-0.000453926,0.000593872,0.00590001,-0.000829127,-0.0265839,0.00171234,-0.00121916,-0.00161176,0.0134877,0.00459008,0.00375884,0,0,0,0,0,0,0,0,0,-0.000616826,-8.39484e-06,-0.000238957,-0.000281731,-0.000361467,0.000234149,4.91304e-05,2.3905e-05,0.000301883,0.000258592,1.74566e-05,-9.08748e-06
485,0.00051179,0.00456432,0.00429307,-0.00164154,0.0827778,0.0827778,0.0827778,0.0827778,0.0827778,0.0827778,0.0827778,0.0827778,0.0827778,-0.917222,-0.556605,0.499357,1.18341,0.00456432,0.00429307,-0.00164154,-0.000646099,0.000174783,-0.00221402,-0.000643017,0.00147124,0.00181577,0.0827778,0.00715514,-0.0940613,0.00040973,-0.00223265,-0.0135227,-0.0105828,0.0773063,0.10302,0.00388478,0.0215164,0.000850682,0.0251241,-0.0235768,0.0123777,-0.100789,-0.000646099,0.000174783,-0.00221402,-0.000643017,0.00147124,0.00181577,0,0,0,0,0,0,0,0,0,-0.000495575,4.91718e-06,-0.000399286,-0.000296059,-0.000353599,0.000405131,-1.14192e-05,1.7282e-05,0.000315107,0.000168092,5.93721e-06,4.33394e-05
486,0.00051179,0.00451296,0.0103256,-0.0281297,0.0132907,0.0132907,0.0132907,0.0132907,0.0132907,0.0132907,0.0132907,0.0132907,0.0132907,-0.986709,0.471368,-0.663064,1.27884,0.00451296,0.0103256,-0.0281297,-0.00671605,-0.00134926,-0.00259268,-0.0135878,-0.00548341,0.00836593,0.0132907,-0.00270174,0.0377263,-0.00353318,0.0135796,0.000976908,-0.0032963,0.033211,-0.0432162,0.00424562,-0.00171093,-0.0016393,0.00923137,-0.0221943,-0.00279472,-0.0143126,-0.00671605,-0.00134926,-0.00259268,-0.0135878,-0.00548341,0.00836593,0,0,0,0,0,0,0,0,0,-0.000446528,-3.18712e-05,-0.000272591,-0.000364005,-0.000316346,0.000223767,-3.1493e-05,3.16299e-05,0.00028713,0.000305115,-0.000102857,4.30738e-05
487,0.00051179,-0.0193394,-0.0069828,-0.00735407,0.0763467,0.0763467,0.0763467,0.0763467,0.0763467,0.0763467,0.0763467,0.0763467,0.0763467,-0.826347,0.0665238,0.0725057,0.832185,-0.0193394,-0.0069828,-0.00735407,-0.00116201,-0.00592736,-0.000857361,0.0115596,0.00956414,-0.00320064,0.0763467,0.172293,1.16253,0.0500474,0.468235,0.609041,0.0793902,-0.0229551,-1.75223,0.120411,0.0371635,0.00341307,0.212841,-0.498416,-0.0763794,-0.182532,-0.00116201,-0.00592736,-0.000857361,0.0115596,0.00956414,-0.00320064,0,0,0,0,0,0,0,0,0,-0.000475019,0.000597744,0.000223118,0.00077729,-0.000314469,0.000218083,0.000401945,0.000166828,0.000379764,8.03873e-06,-3.70561e-05,-0.00065581
488,0.00051179,-0.0877428,-0.0598995,0.0357823,0.0283011,0.0283011,0.0283011,0.0283011,0.0283011,0.0283011,0.0283011,0.0283011,0.0283011,-0.890701,0.971699,0.064342,1.31973,-0.0877428,-0.0598995,0.0357823,-0.00439854,0.0286553,-0.00827411,-0.0198928,-0.0166729,-0.0593826,0.0283011,0.341402,4.18853,-0.0337933,-0.278236,1.06643,0.634707,1.85456,-5.16722,0.00116353,0.0126659,-0.014803,0.509772,0.32547,-0.253482,-2.40011,-0.00439854,0.0286553,-0.00827411,-0.0198928,-0.0166729,-0.0593826,0,0,0,0,0,0,0,0,0,-0.000288151,0.00167878,0.00110411,0.00354238,-0.000388229,-0.00115549,-9.98882e-05,-0.00127182,0.000519119,0.00272195,0.000957057,-0.00157056
489,0.00051179,-0.00993574,-0.00186476,-0.00276899,0.105072,0.105072,0.105072,0.105072,0.105072,0.105072,0.105072,0.105072,0.105072,-0.894928,0.112879,0.0684178,0.90461,-0.00993574,-0.00186476,-0.00276899,0.0115102,-0.00252408,-0.0101607,0.00974514,0.0105672,0.0105645,0.105072,0.126013,0.746879,0.0385177,0.370822,0.248822,0.0822534,0.180388,-0.985766,0.0799573,0.0341187,0.0108062,0.197962,-0.403076,-0.0640553,-0.375581,0.0115102,-0.00252408,-0.0101607,0.00974514,0.0105672,0.0105645,0,0,0,0,0,0,0,0,0,-0.000505261,0.000487151,0.000170673,0.000483679,-0.0003142,0.000189264,0.000248049,0.000155591,0.000373244,0.000237248,5.81426e-05,-0.000467917
490,0.00051179,-0.0268841,0.0166965,0.0109275,0.0196976,0.0196976,0.0196976,0.0196976,0.0196976,0.0196976,0.0196976,0.0196976,0.0196976,-0.769698,0.66802,0.40867,1.09804,-0.0268841,0.0166965,0.0109275,0.011773,0.00807977,0.0107897,-0.0144137,0.0106211,-0.00580593,0.0196976,0.000395253,0.00907744,-0.00111114,0.0346899,-0.00199381,-0.00191769,0.114877,0.0198004,-0.0220887,0.0393547,0.00875045,0.026574,-0.0907411,0.0145328,-0.152378,0.011773,0.00807977,0.0107897,-0.0144137,0.0106211,-0.00580593,0,0,0,0,0,0,0,0,0,-0.000416733,7.88497e-05,0.000482681,-0.000463601,-0.000410641,-0.000412995,-0.000164504,0.000117439,0.000331312,0.000552322,7.62762e-05,6.16428e-05
491,0.00051179,-0.00776096,0.00117102,0.00741427,0.0653893,0.0653893,0.0653893,0.0653893,0.0653893,0.0653893,0.0653893,0.0653893,0.0653893,-0.934611,0.602903,0.749966,1.34143,-0.00776096,0.00117102,0.00741427,-0.000387547,-0.0015217,-0.000280265,0.00598209,-0.00319989,0.0037722,0.0653893,0.000198558,-0.00657274,0.00101627,-0.0049777,0.000680784,-0.000541378,0.0180067,0.0136529,-0.000648903,0.000396687,-0.00108936,0.0012739,0.00341,1.77808e-05,-0.0266949,-0.000387547,-0.0015217,-0.000280265,0.00598209,-0.00319989,0.0037722,0,0,0,0,0,0,0,0,0,-0.000571288,-1.12536e-05,0.000279,-0.000340863,-0.000322098,-0.000284054,1.63573e-05,1.47391e-05,0.000285402,0.000332646,-5.76316e-05,8.64125e-06
492,0.00051179,0.0548248,0.124646,-0.0241427,0.0208709,0.0208709,0.0208709,0.0208709,0.0208709,0.0208709,0.0208709,0.0208709,0.0208709,-0.729129,0.841338,0.0680885,1.1154,0.0548248,0.124646,-0.0241427,-0.253957,0.0294483,0.048229,0.0703802,-0.0157425,-0.0214221,0.0208709,2.86523,29.1684,-0.393067,-2.88551,-1.41288,0.533402,-3.64431,-27.8103,0.25799,-2.42222,-0.0331264,0.0162019,5.18308,0.176429,3.65225,-0.253957,0.0294483,0.048229,0.0703802,-0.0157425,-0.0214221,0,0,0,0,0,0,0,0,0,0.000472553,0.0094856,-0.00072681,0.0105254,-0.000637436,-0.00290938,-0.0019289,-0.00364991,0.000387453,-0.00470909,0.00316122,-0.00279571
493,0.00051179,-0.000454326,0.00857119,-0.00594798,0.0789458,0.0789458,0.0789458,0.0789458,0.0789458,0.0789458,0.0789458,0.0789458,0.0789458,-0.828946,0.266042,-0.66138,1.09332,-0.000454326,0.00857119,-0.00594798,-0.00709276,0.000937019,0.0033244,0.00478456,-0.000248371,-0.00402681,0.0789458,0.00049831,0.00867333,-0.00120353,0.0122221,0.00109505,-0.00113221,0.0179709,-0.00931405,0.0075341,-0.0066281,-0.00187998,0.00335247,-0.0141652,0.000346087,-0.0153754,-0.00709276,0.000937019,0.0033244,0.00478456,-0.000248371,-0.00402681,0,0,0,0,0,0,0,0,0,-0.000405721,-3.53301e-05,-0.000160335,-0.000324874,-0.000290716,0.00015767,5.92354e-05,2.59465e-05,0.000352405,0.000346796,-4.723e-05,-2.07615e-05
494,0.00051179,-0.00427958,0.0178068,0.00611627,0.0164069,0.0164069,0.0164069,0.0164069,0.0164069,0.0164069,0.0164069,0.0164069,0.0164069,-0.766407,-0.456168,0.510316,1.02757,-0.00427958,0.0178068,0.00611627,0.00433949,-0.00824939,0.00709081,-0.01283,-0.00439858,-0.00181606,0.0164069,0.000101879,-0.00663919,0.000203557,-0.005593,-0.000186256,-0.000539929,0.0506856,0.011105,-0.0125148,-0.0057602,-0.000142694,0.00100933,-0.00645356,0.00390194,-0.0578112,0.00433949,-0.00824939,0.00709081,-0.01283,-0.00439858,-0.00181606,0,0,0,0,0,0,0,0,0,-0.000535451,4.39195e-05,-0.000328414,-0.000273973,-0.00030362,0.000247955,-0.000105012,-5.72912e-06,0.000352927,0.000339481,-3.96836e-05,3.2142e-05
495,0.00051179,-0.00105908,-0.00124492,0.000671641,0.0519689,0.0519689,0.0519689,0.0519689,0.0519689,0.0519689,0.0519689,0.0519689,0.0519689,-0.801969,0.421858,0.745747,1.17357,-0.00105908,-0.00124492,0.000671641,0.00516361,0.000874871,0.000214927,-0.00493065,0.00553072,0.00927197,0.0519689,-9.93907e-06,0.000387512,0.000357397,-0.00226038,0.000262235,0.000390615,0.00225061,0.000409338,-0.00138958,0.000577473,-0.00116408,0.000154996,0.00292783,-0.000202075,-0.00307724,0.00516361,0.000874871,0.000214927,-0.00493065,0.00553072,0.00927197,0,0,0,0,0,0,0,0,0,-0.000615276,1.66491e-05,0.000213934,-0.000275909,-0.000352914,-0.000201611,-4.07204e-05,4.54166e-05,0.000332065,0.000281965,-1.75017e-06,3.62302e-05
496,0.00051179,-0.000769758,0.00672333,-0.00691022,0.0633121,0.0633121,0.0633121,0.0633121,0.0633121,0.0633121,0.0633121,0.0633121,0.0633121,-0.813312,0.39567,-0.698275,1.14264,-0.000769758,0.00672333,-0.00691022,-0.00668368,0.000631846,0.00273603,0.00710073,0.00323895,-0.00373592,0.0633121,0.000506118,0.00675132,-0.00085067,0.00743358,0.000975154,-0.00055312,0.0125661,-0.00695672,0.00510831,-0.00510003,-0.00138903,0.00111648,-0.00905688,0.000859018,-0.00677239,-0.00668368,0.000631846,0.00273603,0.00710073,0.00323895,-0.00373592,0,0,0,0,0,0,0,0,0,-0.000418536,-3.45277e-05,-0.000220573,-0.000358016,-0.000281924,0.000218385,5.74053e-05,6.72301e-05,0.000352614,0.000379845,-4.87308e-05,-1.80244e-05
497,0.00051179,-0.0106897,-8.83341e-05,0.063211,0.0326904,0.0326904,0.0326904,0.0326904,0.0326904,0.0326904,0.0326904,0.0326904,0.0326904,-0.78269,-0.514955,0.202714,0.95858,-0.0106897,-8.83341e-05,0.063211,-0.00838006,-0.0129581,-0.0811374,0.0231566,0.0492379,0.0069074,0.0326904,0.110196,-5.18729,-0.00179463,0.315033,-0.128705,-0.170497,5.04098,5.32668,-0.0264541,0.228499,0.0216208,0.344954,-0.543443,0.301026,-5.44914,-0.00838006,-0.0129581,-0.0811374,0.0231566,0.0492379,0.0069074,0,0,0,0,0,0,0,0,0,-0.000227936,4.00956e-05,-0.00066248,-0.0033876,-0.000340099,0.000514953,-0.000485471,0.000619443,0.000271462,0.000871256,8.91433e-05,0.00107069
498,0.00051179,-0.000797056,0.00135148,-0.00250442,0.112002,0.112002,0.112002,0.112002,0.112002,0.112002,0.112002,0.112002,0.112002,-0.887998,0.317067,-0.471465,1.05421,-0.000797056,0.00135148,-0.00250442,-0.00239645,-8.20328e-05,-0.00203517,4.99729e-05,-0.00628113,-0.00224001,0.112002,-0.00550137,0.113339,-0.000118189,-0.000608076,0.00270727,-0.010817,0.114232,-0.11525,0.0137579,0.0200671,-0.00516842,0.0112096,-0.0208105,-0.0109165,-0.122938,-0.00239645,-8.20328e-05,-0.00203517,4.99729e-05,-0.00628113,-0.00224001,0,0,0,0,0,0,0,0,0,-0.00047832,-3.11279e-05,-0.000210291,-0.000396033,-0.000298524,0.000208289,7.74006e-05,-4.53794e-05,0.000324264,0.000267511,-6.9116e-05,-5.74211e-05
499,0.00051179,0.0162612,-0.0161773,-0.000316858,0.0658491,0.0658491,0.0658491,0.0658491,0.0658491,0.0658491,0.0658491,0.0658491,0.0658491,-0.934151,-0.597027,0.0221025,1.10886,0.0162612,-0.0161773,-0.000316858,0.00402637,-0.00993212,-0.00902821,0.00275288,-0.0160867,-0.00458741,0.0658491,0.189526,0.961833,0.0175803,-0.120551,-0.0948986,0.277693,1.96911,-0.883196,0.028012,0.0602135,-0.00491665,-0.416027,0.0765144,-0.0329318,-1.55277,0.00402637,-0.00993212,-0.00902821,0.00275288,-0.0160867,-0.00458741,0,0,0,0,0,0,0,0,0,-0.000528574,0.000752225,-8.30032e-05,0.00223022,-0.000379765,0.000159485,-6.17118e-05,-0.000254253,0.000483878,0.000456432,4.42193e-05,-0.000403132
500,0.00051179,0.00297298,-0.002406,0.00239592,0.0510776,0.0510776,0.0510776,0.0510776,0.0510776,0.0510776,0.0510776,0.0510776,0.0510776,-0.948922,-0.231394,0.563098,1.12742,0.00297298,-0.002406,0.00239592,-0.000183452,-0.000198209,0.000203944,0.00537271,0.000830686,0.0021973,0.0510776,0.00541712,-0.0562094,-0.00146382,0.0147809,-0.00102054,-0.00593764,0.0479476,0.054257,0.0120391,0.0107796,0.00231538,0.000652789,-0.0231545,0.008668,-0.0509964,-0.000183452,-0.000198209,0.000203944,0.00537271,0.000830686,0.0021973,0,0,0,0,0,0,0,0,0,-0.000600822,-1.2498e-05,-0.000157971,-0.000210364,-0.000353212,0.00014135,4.83929e-05,5.27569e-05,0.000308238,0.000153027,-2.12962e-05,1.56602e-05
501,0.00051179,-0.00245436,0.00303095,0.00173892,0.0811173,0.0811173,0.0811173,0.0811173,0.0811173,0.0811173,0.0811173,0.0811173,0.0811173,-0.918883,-0.295783,0.561773,1.11688,-0.00245436,0.00303095,0.00173892,-0.000652096,0.00110008,0.000467762,0.00250969,0.00205691,0.00301765,0.0811173,0.00401177,-0.0433077,-0.000925176,0.0155973,-0.00152628,-0.00487693,0.046259,0.0472884,0.00711341,0.00797846,0.00131978,0.00227552,-0.0266067,0.00751443,-0.0502734,-0.000652096,0.00110008,0.000467762,0.00250969,0.00205691,0.00301765,0,0,0,0,0,0,0,0,0,-0.000589274,-1.03342e-05,-0.000201471,-0.000220498,-0.00035041,0.00020322,2.0983e-05,5.25571e-05,0.000314437,0.000176406,-1.87901e-05,2.55279e-05
502,0.00051179,-0.00493555,-0.0107097,-0.00306699,0.0653333,0.0653333,0.0653333,0.0653333,0.0653333,0.0653333,0.0653333,0.0653333,0.0653333,-0.934667,0.869651,-0.292185,1.30968,-0.00493555,-0.0107097,-0.00306699,-0.00294799,-0.00517669,-0.000424467,-0.00742662,-0.0159627,0.00617472,0.0653333,-0.0573819,0.0305754,0.0238398,-0.017195,-0.0436929,-0.0105693,-0.327034,0.0180531,0.00393213,-0.0488723,0.0252031,-0.00389175,0.076777,0.00448885,0.333993,-0.00294799,-0.00517669,-0.000424467,-0.00742662,-0.0159627,0.00617472,0,0,0,0,0,0,0,0,0,-0.000835933,-0.00024031,-0.000783658,-0.000689945,-0.000238026,0.000970289,4.3867e-05,0.000307563,0.000241868,0.000580007,-0.000215159,0.000114657
503,0.00051179,0.00483608,-0.0171682,0.00923306,0.0681403,0.0681403,0.0681403,0.0681403,0.0681403,0.0681403,0.0681403,0.0681403,0.0681403,-0.906225,0.93186,-0.118574,1.30525,0.00483608,-0.0171682,0.00923306,-0.00113456,-0.0200389,-0.00336279,-0.000263005,-0.000439286,-0.0065898,0.0681403,-0.373303,-3.51536,0.0910904,0.619416,-0.797756,0.292963,-0.781763,4.30828,-0.000599938,0.0174241,-0.0106531,0.102557,-0.619672,0.248063,0.669973,-0.00113456,-0.0200389,-0.00336279,-0.000263005,-0.000439286,-0.0065898,0,0,0,0,0,0,0,0,0,-0.000923194,-0.00171777,-0.000792202,0.0013921,-0.000169629,0.00150272,0.000150102,-0.000337615,0.000371538,0.00150389,0.000226692,0.00136178
504,0.00051179,0.0337262,0.0198684,-0.0271347,0.0702867,0.0702867,0.0702867,0.0702867,0.0702867,0.0702867,0.0702867,0.0702867,0.0702867,-0.820287,0.215664,-0.1194,0.856527,0.0337262,0.0198684,-0.0271347,-0.0306158,0.00300508,0.00129611,0.00665552,0.000798391,-0.00278777,0.0702867,-0.390947,-2.61867,-0.162692,-0.992536,-0.622393,-0.0651571,-1.78246,3.20733,-0.162448,-0.212989,-0.0388786,-0.124343,1.18566,0.0332973,1.93394,-0.0306158,0.00300508,0.00129611,0.00665552,0.000798391,-0.00278777,0,0,0,0,0,0,0,0,0,-0.000738844,-0.00147684,-0.000950859,-9.78432e-05,-0.000393117,-0.00064601,-0.000147984,-0.000198238,0.000342943,-0.000540767,-0.000182564,0.000783524
505,0.00051179,-0.14509,0.0472708,0.0352077,0.0055234,0.0055234,0.0055234,0.0055234,0.0055234,0.0055234,0.0055234,0.0055234,0.0055234,-0.755523,0.652739,0.105816,1.00403,-0.14509,0.0472708,0.0352077,-0.117234,0.0593802,0.227131,0.176356,-0.0598345,-0.0496098,0.0055234,2.54437,24.4795,-0.0233628,-0.993778,-2.0271,-0.739303,-16.5298,-22.3073,0.353361,-1.08689,0.00351228,0.737052,2.0334,0.464562,15.7576,-0.117234,0.0593802,0.227131,0.176356,-0.0598345,-0.0496098,0,0,0,0,0,0,0,0,0,0.000443667,0.00824513,0.000360241,-0.00144383,-0.000368739,-6.68842e-08,-0.00124196,-0.00092773,0.00014253,-0.00367789,0.000364508,-0.00181578
506,0.00051179,-0.040478,0.00663191,0.00151205,0.120148,0.120148,0.120148,0.120148,0.120148,0.120148,0.120148,0.120148,0.120148,-0.870148,0.144581,0.0831167,0.885985,-0.040478,0.00663191,0.00151205,0.0113504,-0.00390044,-0.00479729,0.00954394,0.0143736,0.0062483,0.120148,0.193734,1.21101,0.0663506,0.615094,0.36888,0.0704862,0.0192189,-1.53942,0.104135,0.067682,0.00913954,0.133291,-0.689408,-0.0799197,-0.154022,0.0113504,-0.00390044,-0.00479729,0.00954394,0.0143736,0.0062483,0,0,0,0,0,0,0,0,0,-0.000474453,0.000742624,0.000331198,0.000586822,-0.000297124,0.000293304,0.000285597,0.00019981,0.000370681,7.00678e-05,3.53212e-05,-0.000651156
507,0.00051179,-0.0014135,-0.00153545,-0.00189248,0.0880948,0.0880948,0.0880948,0.0880948,0.0880948,0.0880948,0.0880948,0.0880948,0.0880948,-0.911905,0.848399,-0.583136,1.37528,-0.0014135,-0.00153545,-0.00189248,-0.00106555,-0.0019927,0.00168759,0.000164893,-0.00478286,-0.0018488,0.0880948,-2.7582e-05,0.022344,-0.00173112,0.0122002,0.00326374,-0.00129187,0.0179762,-0.0241942,0.00256546,-0.0300628,0.00155405,0.000250362,0.0193981,-0.000637177,-0.0163341,-0.00106555,-0.0019927,0.00168759,0.000164893,-0.00478286,-0.0018488,0,0,0,0,0,0,0,0,0,-0.000630029,-4.48632e-06,-0.000474423,-0.000604089,-0.00028711,0.000437185,1.46311e-05,0.000143639,0.00026276,0.000608046,-0.000175927,-1.14506e-05
508,0.00051179,-0.00113755,0.00772887,-0.00584436,0.0695673,0.0695673,0.0695673,0.0695673,0.0695673,0.0695673,0.0695673,0.0695673,0.0695673,-0.819567,0.646696,-0.70882,1.26188,-0.00113755,0.00772887,-0.00584436,-0.00753705,-0.000576854,-0.000614144,0.00147524,0.00623332,-0.00210406,0.0695673,0.000797346,0.00480193,-0.000714116,0.00652065,-0.00019879,-0.000401381,0.00491091,-0.00346558,0.00302471,-0.00929525,-0.000931349,0.00187449,-0.00495427,0.00107455,-0.000941042,-0.00753705,-0.000576854,-0.000614144,0.00147524,0.00623332,-0.00210406,0,0,0,0,0,0,0,0,0,-0.00048431,-2.99263e-05,-0.000336282,-0.000450806,-0.000273401,0.000323372,2.6272e-05,0.000126592,0.00033538,0.00044065,-7.35723e-05,-1.37532e-06
509,0.00051179,0.00306741,-0.00291232,0.00405765,0.00975096,0.00975096,0.00975096,0.00975096,0.00975096,0.00975096,0.00975096,0.00975096,0.00975096,-0.969446,0.990249,-0.816507,1.60845,0.00306741,-0.00291232,0.00405765,0.00135564,-0.000462562,0.00394929,-0.00214238,-0.00660299,-0.00736986,0.00975096,0.00257672,-0.0142852,-0.000622831,0.0021323,0.0046272,0.00154469,-0.00814968,0.00659055,-0.00090252,-0.000734524,0.000309665,0.00116204,0.00151454,-0.0012137,0.00292999,0.00135564,-0.000462562,0.00394929,-0.00214238,-0.00660299,-0.00736986,0,0,0,0,0,0,0,0,0,-0.000546716,2.85419e-05,-0.000337609,-0.00059339,-0.000332469,0.000326755,-6.3444e-06,8.22946e-05,0.000206262,0.00064833,-0.000145228,-3.40377e-05
510,0.00051179,0.0221452,0.00724934,0.0255718,0.0442521,0.0442521,0.0442521,0.0442521,0.0442521,0.0442521,0.0442521,0.0442521,0.0442521,-0.955748,0.285133,0.189346,1.01519,0.0221452,0.00724934,0.0255718,0.0201798,-0.0114966,0.000931362,0.00880454,0.0187897,0.00718647,0.0442521,0.192991,0.621859,0.0468015,0.191778,0.00479393,-0.041692,-0.532715,-0.648798,0.0828397,-0.0512906,-0.0244736,-0.0460847,-0.147737,-0.0347698,0.553228,0.0201798,-0.0114966,0.000931362,0.00880454,0.0187897,0.00718647,0,0,0,0,0,0,0,0,0,-0.000484742,0.000745971,0.000219422,-0.000146976,-0.000289852,0.000133626,0.000138339,-0.000103067,0.000321269,-0.00026063,4.62283e-05,-0.000457799
511,0.00051179,0.146441,-0.0586348,0.0197744,0.0433876,0.0433876,0.0433876,0.0433876,0.0433876,0.0433876,0.0433876,0.0433876,0.0433876,-0.701748,0.398576,-0.0566124,0.809023,0.146441,-0.0586348,0.0197744,-0.0336813,0.021247,0.0324526,-0.00379863,-0.0282315,-0.00870791,0.0433876,-1.85599,-11.7895,-0.588702,-4.82404,0.451727,0.0764151,-6.44512,11.1914,-0.616572,-0.798115,0.22499,-0.0835262,5.68079,-0.419777,6.50887,-0.0336813,0.021247,0.0324526,-0.00379863,-0.0282315,-0.00870791,0,0,0,0,0,0,0,0,0,-0.00133426,-0.00605775,-0.0026829,0.0117064,-0.000573182,-0.00299165,0.000288757,0.00330813,-5.96344e-05,-0.0106177,-0.00134054,0.00124818
512,0.00051179,0.00742472,0.00384269,-0.0116434,0.0369628,0.0369628,0.0369628,0.0369628,0.0369628,0.0369628,0.0369628,0.0369628,0.0369628,-0.786963,0.947644,-0.663051,1.39892,0.00742472,0.00384269,-0.0116434,-0.00579621,-0.00170021,-0.00127582,-0.00286712,0.00394952,0.00304965,0.0369628,0.000846937,-0.00734024,-0.000722878,0.0157272,-0.000481778,0.000357553,0.00342049,0.0003973,0.00131278,-0.0111504,-0.000617963,0.00514963,-0.00841945,0.00285867,0.00307327,-0.00579621,-0.00170021,-0.00127582,-0.00286712,0.00394952,0.00304965,0,0,0,0,0,0,0,0,0,-0.00062608,-2.40595e-05,-0.000414333,-0.000645115,-0.000252003,0.000390103,-7.08483e-06,0.000191478,0.000324346,0.000635932,-0.000158162,3.02285e-05
513,0.00051179,-0.0215757,-0.010774,-0.000894547,0.100403,0.100403,0.100403,0.100403,0.100403,0.100403,0.100403,0.100403,0.100403,-0.899597,0.850161,0.175827,1.25019,-0.0215757,-0.010774,-0.000894547,0.0132037,0.00913674,0.0104326,0.00203655,-0.00620495,0.000726968,0.100403,0.34439,1.68654,-0.0930804,-0.281246,0.0306875,0.00853163,-1.81423,-1.69565,-0.000749903,-0.0624778,0.0225908,0.115926,0.354498,-0.101139,1.6992,0.0132037,0.00913674,0.0104326,0.00203655,-0.00620495,0.000726968,0,0,0,0,0,0,0,0,0,-0.000194706,0.00148974,0.000439307,-6.38532e-05,-0.000408018,-0.00127874,-0.0002918,-1.55626e-05,0.000303075,0.000253496,0.000179421,-0.000800291
514,0.00051179,0.013496,-0.00262498,-0.000875293,0.0126774,0.0126774,0.0126774,0.0126774,0.0126774,0.0126774,0.0126774,0.0126774,0.0126774,-0.762677,0.532308,0.844739,1.25643,0.013496,-0.00262498,-0.000875293,0.017478,-0.00422041,-0.00874912,-0.00160916,0.00464143,0.0129241,0.0126774,0.000252917,-0.0138243,-2.68146e-05,-0.00205025,0.000232201,0.000503372,0.00214219,9.60509e-05,-0.000976013,0.000334687,-0.000663581,0.00016211,0.00434054,-0.000618305,-0.00142901,0.017478,-0.00422041,-0.00874912,-0.00160916,0.00464143,0.0129241,0,0,0,0,0,0,0,0,0,-0.000619486,5.69798e-05,0.0002228,-0.000330006,-0.000362063,-0.000265272,-4.46007e-05,4.14904e-05,0.000346325,0.000247549,-1.71186e-06,2.9854e-05
515,0.00051179,0.00421589,0.00030886,-0.00666933,0.0497234,0.0497234,0.0497234,0.0497234,0.0497234,0.0497234,0.0497234,0.0497234,0.0497234,-0.799723,-0.615397,-0.840339,1.31318,0.00421589,0.00030886,-0.00666933,-0.00806831,0.00184353,0.000118855,-0.00142419,-0.00474395,-0.0011496,0.0497234,0.000483707,0.00308629,-0.000581019,0.0038633,2.3703e-05,0.000440575,-0.0012684,-0.00732589,0.000100626,0.0008101,-0.000399088,-0.000270627,-0.00498226,0.000629313,0.00820836,-0.00806831,0.00184353,0.000118855,-0.00142419,-0.00474395,-0.0011496,0,0,0,0,0,0,0,0,0,-0.000424452,-2.7044e-05,0.000285634,-0.000408988,-0.000323558,-0.000273009,4.26115e-06,-0.000111219,0.000365898,0.000414582,5.97886e-05,8.27755e-06
516,0.00051179,-0.000329297,0.00328027,0.00488809,0.0856837,0.0856837,0.0856837,0.0856837,0.0856837,0.0856837,0.0856837,0.0856837,0.0856837,-0.835684,0.711141,0.501698,1.20656,-0.000329297,0.00328027,0.00488809,-0.000822603,-0.00175716,-0.00016173,-0.00361628,0.00926068,0.00835247,0.0856837,0.00197859,-0.0373844,-0.00175833,0.0264098,-0.00345244,-0.00365286,0.0639292,0.0411662,-0.00792588,0.010066,0.00224318,0.00875096,-0.0397561,0.00576873,-0.0775682,-0.000822603,-0.00175716,-0.00016173,-0.00361628,0.00926068,0.00835247,0,0,0,0,0,0,0,0,0,-0.000440322,1.47029e-06,0.000449775,-0.000449528,-0.000372523,-0.00048493,-6.20205e-05,9.91469e-05,0.000309601,0.000411382,1.58918e-05,6.62964e-05
517,0.00051179,0.00742076,-0.0045667,0.0123481,0.0273681,0.0273681,0.0273681,0.0273681,0.0273681,0.0273681,0.0273681,0.0273681,0.0273681,-0.777368,0.167627,0.891752,1.19483,0.00742076,-0.0045667,0.0123481,0.0100778,-0.00202793,0.00170303,-0.00308985,0.00273403,0.0119341,0.0273681,0.000625506,-0.00846872,-8.0578e-05,0.000275879,-0.000388934,0.000389751,-0.0026303,0.00143689,-0.000896769,-0.00122399,-0.000351815,-0.000540329,0.00551481,-0.000547901,-0.00917752,0.0100778,-0.00202793,0.00170303,-0.00308985,0.00273403,0.0119341,0,0,0,0,0,0,0,0,0,-0.000688344,3.26287e-05,5.97631e-05,-0.000264522,-0.000342363,-8.08481e-05,-4.08211e-05,2.7789e-05,0.000344358,0.00028545,-3.9669e-06,3.60431e-05
518,0.00051179,0.015949,-0.0480051,-0.00692956,0.00105994,0.00105994,0.00105994,0.00105994,0.00105994,0.00105994,0.00105994,0.00105994,0.00105994,-0.75106,-0.776739,-0.632248,1.25186,0.015949,-0.0480051,-0.00692956,-0.0216388,-0.00257705,0.00275221,0.00351075,-0.0166117,0.0094745,0.00105994,0.00124879,-0.0182451,0.000270672,0.037675,-0.00263342,0.000772286,0.0236623,0.00492949,0.00154473,0.031981,-0.00302902,-0.00299482,-0.021651,-0.000838913,-0.0137379,-0.0216388,-0.00257705,0.00275221,0.00351075,-0.0166117,0.0094745,0,0,0,0,0,0,0,0,0,-0.000573628,-9.42205e-05,0.0004206,-0.000484636,-0.000377739,-0.000443664,3.30069e-05,-0.000227772,0.000383124,0.000519881,3.13652e-05,5.09075e-05
519,0.00051179,-0.176376,0.0223557,0.232072,0.000418277,0.000418277,0.000418277,0.000418277,0.000418277,0.000418277,0.000418277,0.000418277,0.000418277,-0.750418,-0.0230538,-0.281383,0.80177,-0.176376,0.0223557,0.232072,-0.0296934,0.00667981,0.0125057,0.012916,0.00343198,0.0404142,0.000418277,0.000353172,0.147955,0.000550993,-0.0230451,0.00554266,-2.35848e-05,-0.263317,0.0228788,0.00827978,0.0128737,-0.0111504,-0.00962799,-0.0121843,-0.0111504,0.0408734,-0.0296934,0.00667981,0.0125057,0.012916,0.00343198,0.0404142,0,0,0,0,0,0,0,0,0,-0.000537463,-0.000171069,5.15704e-06,-0.00061056,-0.000323409,6.7151e-05,8.16103e-05,-4.49106e-05,0.000392348,0.000735381,-3.22733e-05,0.000121951
520,0.00051179,-0.00420841,0.0078487,-0.0131785,0.100478,0.100478,0.100478,0.100478,0.100478,0.100478,0.100478,0.100478,0.100478,-0.899522,-0.21704,-0.515769,1.05937,-0.00420841,0.0078487,-0.0131785,-0.00322451,-0.000521918,-0.000934592,-0.00563452,0.00195548,-0.00228252,0.100478,-0.00278793,0.0655471,-0.00122195,0.00581932,-0.000648229,-0.00721823,0.0742751,-0.0606905,0.00808091,-0.00290684,-0.00549023,-0.00182934,-0.0107612,-0.00554175,-0.0592673,-0.00322451,-0.000521918,-0.000934592,-0.00563452,0.00195548,-0.00228252,0,0,0,0,0,0,0,0,0,-0.000442378,-1.69196e-05,0.00012244,-0.000349228,-0.000316078,-0.000139879,2.53746e-05,-4.1421e-05,0.000339314,0.0002677,6.07353e-06,-2.59786e-05
521,0.00051179,0.00551414,0.00323351,-0.0280899,0.0688861,0.0688861,0.0688861,0.0688861,0.0688861,0.0688861,0.0688861,0.0688861,0.0688861,-0.818886,0.708007,0.29889,1.12302,0.00551414,0.00323351,-0.0280899,-0.004972,-0.00594786,-0.0106901,-0.0147358,0.00832914,0.0155684,0.0688861,0.020475,-0.743234,-0.00914054,0.19113,-0.0525348,-0.0414379,0.798809,0.790255,-0.036448,0.0394706,0.0249181,0.184905,-0.233834,0.0646652,-0.955624,-0.004972,-0.00594786,-0.0106901,-0.0147358,0.00832914,0.0155684,0,0,0,0,0,0,0,0,0,-0.000323839,2.61082e-05,0.000480157,-0.00105683,-0.00040921,-0.000631041,-0.000307326,0.000174632,0.000284389,0.000535555,0.00015784,0.000349761
522,0.00051179,-0.159814,0.0719188,0.0642233,0.0152155,0.0152155,0.0152155,0.0152155,0.0152155,0.0152155,0.0152155,0.0152155,0.0152155,-0.734784,0.925052,-0.116801,1.18713,-0.159814,0.0719188,0.0642233,-0.0118649,0.383347,0.165249,0.0359173,0.275251,0.22858,0.0152155,-1.61931,0.407485,0.332842,-0.365858,-2.32698,-0.683624,-14.1619,2.07931,-0.0528405,0.962758,0.198754,-1.6435,-0.668818,-0.345529,15.7412,-0.0118649,0.383347,0.165249,0.0359173,0.275251,0.22858,0,0,0,0,0,0,0,0,0,-0.00157536,-0.00611929,-4.77527e-05,-0.00713015,0.000296628,0.00720964,0.00195198,0.000638598,0.00057973,0.0019464,0.00410145,0.00145185
523,0.00051179,0.00458607,0.00295599,0.00551646,0.0374068,0.0374068,0.0374068,0.0374068,0.0374068,0.0374068,0.0374068,0.0374068,0.0374068,-0.962593,0.112728,0.7325,1.21485,0.00458607,0.00295599,0.00551646,-0.00206817,0.000321974,7.55582e-05,0.0100992,-0.00103071,0.00135714,0.0374068,0.00126494,-0.0204577,0.00042785,0.00249568,0.000943842,-0.00244017,0.0331459,0.0149278,0.00200431,-0.000670041,-0.000842059,-0.00196576,-0.00478164,0.00335542,-0.0366966,-0.00206817,0.000321974,7.55582e-05,0.0100992,-0.00103071,0.00135714,0,0,0,0,0,0,0,0,0,-0.000651486,-2.24925e-05,5.453e-05,-0.000226379,-0.000332767,-4.70317e-05,4.20411e-05,7.45461e-06,0.000297621,0.000202733,-2.61823e-05,5.08648e-06
524,0.00051179,0.00464999,0.000772936,0.00230545,0.00886801,0.00886801,0.00886801,0.00886801,0.00886801,0.00886801,0.00886801,0.00886801,0.00886801,-0.829847,-0.991132,-0.753617,1.4963,0.00464999,0.000772936,0.00230545,-0.000233348,0.00944728,-0.00915827,-0.00304469,-0.00513609,-0.00125178,0.00886801,0.00115587,-0.0024551,-0.000577532,0.000294575,-0.00158553,0.000720561,-0.00935154,-0.000609369,-0.000437604,0.000115435,0.000398836,-0.0104527,-0.00118295,0.0028647,0.0174988,-0.000233348,0.00944728,-0.00915827,-0.00304469,-0.00513609,-0.00125178,0,0,0,0,0,0,0,0,0,-0.000591107,5.70513e-06,0.000391929,-0.000580351,-0.000323946,-0.000303231,-1.6319e-05,-0.000150258,0.000314392,0.000495974,0.000102885,9.15712e-06
525,0.00051179,0.00474969,0.00173425,0.00294457,0.0864776,0.0864776,0.0864776,0.0864776,0.0864776,0.0864776,0.0864776,0.0864776,0.0864776,-0.913522,0.872948,0.873521,1.5361,0.00474969,0.00173425,0.00294457,-0.000487362,-0.00162693,-0.00174592,0.00267004,-0.0024908,0.00593163,0.0864776,0.000974312,-0.00444126,0.000205703,-0.0030136,-0.00129127,0.000417087,-0.00171156,0.000982834,-0.000426607,-0.00177711,-0.000492109,-0.00141926,0.00305646,-0.00164795,0.000186246,-0.000487362,-0.00162693,-0.00174592,0.00267004,-0.0024908,0.00593163,0,0,0,0,0,0,0,0,0,-0.00054767,-5.65839e-06,0.000269605,-0.000473055,-0.000322634,-0.000283818,3.124e-06,2.7092e-05,0.000277586,0.000459767,-5.69211e-05,1.33253e-05
526,0.00051179,-0.0317225,0.00698332,-0.00333574,0.0304036,0.0304036,0.0304036,0.0304036,0.0304036,0.0304036,0.0304036,0.0304036,0.0304036,-0.969596,0.938982,-0.368852,1.39923,-0.0317225,0.00698332,-0.00333574,-0.00246571,-0.000379726,-0.0131521,0.00398845,-0.0302046,-0.0193994,0.0304036,0.0132895,-0.105291,0.00814105,-0.030161,-0.0701688,0.0186044,-0.0495658,0.207182,0.00131322,-0.0320016,0.0115699,-0.078305,0.0551792,0.00803749,0.131207,-0.00246571,-0.000379726,-0.0131521,0.00398845,-0.0302046,-0.0193994,0,0,0,0,0,0,0,0,0,-0.000835292,4.86226e-05,-0.00080617,-0.000764025,-0.000287468,0.000883783,2.10119e-05,0.000155962,0.000194252,0.000818548,-0.000342309,-6.23059e-05
527,0.00051179,0.00158711,-0.000214891,0.000956998,0.0483857,0.0483857,0.0483857,0.0483857,0.0483857,0.0483857,0.0483857,0.0483857,0.0483857,-0.920246,0.630115,0.951614,1.46611,0.00158711,-0.000214891,0.000956998,-0.00159101,-0.00151812,-0.00128541,0.00591453,-0.00228038,0.00566434,0.0483857,0.00121535,-0.000578894,-0.000194989,-0.0027044,-0.000164269,0.000454947,-0.00011923,-0.000843947,-0.0002784,-0.000381226,-0.00016511,-9.95052e-05,0.00330051,-0.00160305,-0.000738263,-0.00159101,-0.00151812,-0.00128541,0.00591453,-0.00228038,0.00566434,0,0,0,0,0,0,0,0,0,-0.000636913,-1.26341e-05,0.000207881,-0.000365013,-0.000321442,-0.000225012,1.74247e-05,2.74258e-05,0.00029052,0.000356708,-5.18807e-05,9.55058e-06
528,0.00051179,0.0104186,0.00534092,0.00652377,0.002874,0.002874,0.002874,0.002874,0.002874,0.002874,0.002874,0.002874,0.002874,-0.997126,0.0613904,0.758363,1.25425,0.0104186,0.00534092,0.00652377,0.00329443,-3.48897e-05,0.000835244,0.0130993,-0.00157199,0.00111301,0.002874,0.00192566,-0.0248511,0.00053633,0.000607379,0.000816685,-0.00329094,0.0333729,0.0136159,0.00495331,-0.000150823,-0.00063807,-0.00185104,-0.00579748,0.00382106,-0.0380456,0.00329443,-3.48897e-05,0.000835244,0.0130993,-0.00157199,0.00111301,0,0,0,0,0,0,0,0,0,-0.000658832,-6.44579e-06,2.3594e-05,-0.000227778,-0.000333989,-1.85796e-05,5.77167e-05,8.18387e-06,0.000292078,0.000203221,-3.02844e-05,-7.8759e-06
529,0.00051179,0.0122782,0.0243088,-6.8007e-05,0.0549311,0.0549311,0.0549311,0.0549311,0.0549311,0.0549311,0.0549311,0.0549311,0.0549311,-0.804931,0.643488,-0.585051,1.18502,0.0122782,0.0243088,-6.8007e-05,-0.00437597,0.000737969,0.0007926,0.00662328,0.0134582,-0.0016332,0.0549311,0.00101586,-0.00719233,-0.000818305,0.00692778,-0.000923456,-0.000657175,0.0217393,-0.00416239,0.00939642,-0.0308933,-0.00184589,0.00388828,-0.00034325,-0.000494342,-0.0255595,-0.00437597,0.000737969,0.0007926,0.00662328,0.0134582,-0.0016332,0,0,0,0,0,0,0,0,0,-0.000538997,-2.89529e-05,-0.000401324,-0.000449857,-0.000250334,0.000400521,6.79461e-05,0.000165647,0.000340663,0.000451211,-4.95244e-05,-2.27901e-05
530,0.00051179,-0.0187343,-0.00441499,-0.0202363,0.0165545,0.0165545,0.0165545,0.0165545,0.0165545,0.0165545,0.0165545,0.0165545,0.0165545,-0.983445,0.0246715,-0.415482,1.06789,-0.0187343,-0.00441499,-0.0202363,-0.00345598,-9.59835e-05,-0.00310046,0.0094082,-0.0112243,0.000497387,0.0165545,-0.0159938,0.048924,0.00299007,-0.0429867,-0.00899333,-0.0189197,-0.00159358,-0.0211964,-0.026781,0.00563084,0.00012854,-0.0155026,0.0417709,-0.00722446,0.0373324,-0.00345598,-9.59835e-05,-0.00310046,0.0094082,-0.0112243,0.000497387,0,0,0,0,0,0,0,0,0,-0.000465192,-4.69994e-05,-1.38217e-05,-0.000403266,-0.000319088,4.27626e-05,-3.66144e-05,-8.57204e-05,0.000314236,0.000183065,-2.5237e-05,1.66143e-05
531,0.00051179,0.000140659,0.00692899,0.00625959,0.00692603,0.00692603,0.00692603,0.00692603,0.00692603,0.00692603,0.00692603,0.00692603,0.00692603,-0.993074,-0.773443,-0.877105,1.53419,0.000140659,0.00692899,0.00625959,-0.00241484,-0.000702519,0.00374556,-0.00750886,0.0104018,0.000507761,0.00692603,0.00148816,-0.00606141,-0.00125682,0.0050723,-0.00118716,0.001556,-0.00691579,0.00710792,-0.00149229,-0.00670525,-0.000215921,0.00353494,-0.00529603,-0.00242242,-0.00287874,-0.00241484,-0.000702519,0.00374556,-0.00750886,0.0104018,0.000507761,0,0,0,0,0,0,0,0,0,-0.000455059,9.03103e-06,0.000312642,-0.000454497,-0.000260705,-0.000332236,-3.13414e-05,-6.82663e-05,0.000259332,0.000507513,0.000170125,4.09112e-06
532,0.00051179,0.00293319,-0.0060482,0.00257063,0.0474464,0.0474464,0.0474464,0.0474464,0.0474464,0.0474464,0.0474464,0.0474464,0.0474464,-0.952554,0.866287,-0.894281,1.56766,0.00293319,-0.0060482,0.00257063,0.000230824,-0.000964653,0.0036007,-0.00385932,-0.00834819,-0.000808778,0.0474464,0.00230129,-0.0127705,-0.000704788,0.00135407,0.00224706,0.0012531,-0.00520632,0.00759028,-0.000388341,0.00327678,0.000160824,7.83651e-05,0.00141736,-0.00151165,0.00255732,0.000230824,-0.000964653,0.0036007,-0.00385932,-0.00834819,-0.000808778,0,0,0,0,0,0,0,0,0,-0.000462629,1.73175e-05,-0.000297045,-0.000531946,-0.000332111,0.000280351,-1.65814e-05,8.51594e-05,0.000237457,0.000580485,-0.000167033,-6.94526e-06
533,0.00051179,0.00527796,0.000842387,-0.00837956,0.0633569,0.0633569,0.0633569,0.0633569,0.0633569,0.0633569,0.0633569,0.0633569,0.0633569,-0.936643,0.28667,-0.638938,1.1695,0.00527796,0.000842387,-0.00837956,-0.00341913,-0.00182538,0.000885248,-0.00637289,-0.00215904,0.000634733,0.0633569,-0.00152437,0.029554,-0.00298148,0.0163618,0.00081137,-0.00350165,0.0216364,-0.0356434,0.00575204,0.00412134,-0.00284814,0.00648829,-0.0213255,-0.002238,-0.0197451,-0.00341913,-0.00182538,0.000885248,-0.00637289,-0.00215904,0.000634733,0,0,0,0,0,0,0,0,0,-0.000414252,-1.64472e-05,-0.000176636,-0.000321991,-0.000304485,0.000128567,5.16609e-06,1.05766e-05,0.000316717,0.000295827,-6.06485e-05,2.53993e-07
534,0.00051179,-0.0738815,0.0357542,-0.127248,0.0378959,0.0378959,0.0378959,0.0378959,0.0378959,0.0378959,0.0378959,0.0378959,0.0378959,-0.789433,0.962104,0.00551255,1.24454,-0.0738815,0.0357542,-0.127248,0.0168695,-0.0172117,0.0131507,-0.00998681,-0.0846739,0.00201559,0.0378959,0.0612175,1.02246,-0.0245347,-0.166599,0.427656,1.52399,10.1666,-1.37623,0.00117431,-0.109912,-0.0732094,1.61688,0.240757,-0.0895844,-11.6562,0.0168695,-0.0172117,0.0131507,-0.00998681,-0.0846739,0.00201559,0,0,0,0,0,0,0,0,0,-0.000534065,0.000411544,7.17765e-05,0.0111151,-0.000323439,-0.000489241,-2.29537e-05,-0.00512701,0.000932932,0.00425634,0.00354817,-0.000416735
535,0.00051179,-0.00245631,0.00278485,-0.00617244,0.0563015,0.0563015,0.0563015,0.0563015,0.0563015,0.0563015,0.0563015,0.0563015,0.0563015,-0.943698,-0.199304,-0.776618,1.23832,-0.00245631,0.00278485,-0.00617244,-0.00364008,0.00302988,0.00133223,-0.00740598,-0.00169226,0.00026789,0.0563015,-0.0015804,0.0231361,-0.0019451,0.0113993,-0.000606152,-0.000241484,0.00629986,-0.0200736,-0.000655429,0.00131449,-0.00150602,-0.00103732,-0.0154986,-0.00152029,0.0009099,-0.00364008,0.00302988,0.00133223,-0.00740598,-0.00169226,0.00026789,0,0,0,0,0,0,0,0,0,-0.000355013,-9.33207e-06,0.000113218,-0.000315662,-0.000300223,-0.00010237,-2.35367e-05,-3.72415e-05,0.00032784,0.000326569,5.25875e-06,1.05083e-05
536,0.00051179,-0.0475044,0.0381691,0.0312481,0.0213955,0.0213955,0.0213955,0.0213955,0.0213955,0.0213955,0.0213955,0.0213955,0.0213955,-0.771396,0.969686,0.0292096,1.23943,-0.0475044,0.0381691,0.0312481,0.0385287,-0.0225698,0.0571092,0.00803903,-0.0619562,-0.0652024,0.0213955,0.743021,7.85822,-0.069893,-0.573107,1.87291,1.6062,9.10188,-9.68362,0.00181298,-0.131183,-0.0560349,1.55933,0.666121,-0.367588,-10.6925,0.0385287,-0.0225698,0.0571092,0.00803903,-0.0619562,-0.0652024,0,0,0,0,0,0,0,0,0,-0.000215575,0.00349397,0.00117007,0.0122528,-0.000476116,-0.0020947,-0.000364523,-0.0056424,0.00100671,0.00438036,0.00446248,-0.00257773
537,0.00051179,-0.0114718,0.0153666,-0.00466299,0.0648896,0.0648896,0.0648896,0.0648896,0.0648896,0.0648896,0.0648896,0.0648896,0.0648896,-0.81489,-0.728696,-0.446652,1.18091,-0.0114718,0.0153666,-0.00466299,-0.0138849,0.00565798,0.00253233,0.00426682,-0.0189747,0.00214266,0.0648896,-0.000459656,0.0555045,-0.00160336,0.00591789,0.00315339,-0.00244443,0.101116,-0.047186,0.0140169,0.0397257,-0.00841348,0.00405071,-0.0610102,-0.00611552,-0.100504,-0.0138849,0.00565798,0.00253233,0.00426682,-0.0189747,0.00214266,0,0,0,0,0,0,0,0,0,-0.000641011,-7.16838e-05,0.000527007,-0.000539009,-0.000391448,-0.000486461,9.14574e-05,-0.000282951,0.000352427,0.000539888,9.06856e-06,-1.98255e-05
538,0.00051179,0.00247782,0.00435135,0.00108303,0.0902668,0.0902668,0.0902668,0.0902668,0.0902668,0.0902668,0.0902668,0.0902668,0.0902668,-0.909733,-0.209187,0.63,1.12618,0.00247782,0.00435135,0.00108303,-0.00249341,0.000279555,0.000494074,0.00530374,0.00149645,0.00226536,0.0902668,0.00199123,-0.0201412,-0.000207655,0.00935225,-0.0007833,-0.00229843,0.0311271,0.0184467,0.00234522,0.000527343,-0.000227069,0.000953099,-0.0142309,0.00437367,-0.0331632,-0.00249341,0.000279555,0.000494074,0.00530374,0.00149645,0.00226536,0,0,0,0,0,0,0,0,0,-0.000618719,-1.84176e-05,-0.00014004,-0.000209572,-0.000343794,0.000140759,2.23381e-05,3.64599e-05,0.000315741,0.000191529,-2.37661e-05,1.72884e-05
539,0.00051179,0.00751965,-0.000864791,0.00653856,0.00443711,0.00443711,0.00443711,0.00443711,0.00443711,0.00443711,0.00443711,0.00443711,0.00443711,-0.807193,-0.0658531,0.995563,1.28337,0.00751965,-0.000864791,0.00653856,0.008035,0.00163657,0.00239918,-0.00117563,9.90743e-05,0.0104442,0.00443711,0.000660554,-0.00342661,-0.0004889,-0.00257191,-2.54361e-05,0.000341367,-0.00180131,-0.0040676,-0.00132188,0.000721727,8.07075e-05,3.81802e-05,0.00271498,-0.00134026,-0.00477543,0.008035,0.00163657,0.00239918,-0.00117563,9.90743e-05,0.0104442,0,0,0,0,0,0,0,0,0,-0.000716425,2.58217e-05,-4.9321e-05,-0.000240958,-0.000329638,6.07977e-05,-3.01437e-05,2.54611e-05,0.000342995,0.000268364,-2.36633e-05,2.78635e-05
540,0.00051179,-0.0080061,-0.0182152,-0.139723,0.0551797,0.0551797,0.0551797,0.0551797,0.0551797,0.0551797,0.0551797,0.0551797,0.0551797,-0.678686,0.424105,-0.0448203,0.801554,-0.0080061,-0.0182152,-0.139723,-0.0137705,0.00880927,0.0212616,-0.0112063,-0.0225515,-0.00858214,0.0551797,-1.76552,-8.69893,-0.53392,-4.03026,0.751177,0.0454153,-6.50881,7.95576,-0.520758,-0.521125,0.312181,-0.144764,4.5696,-0.356183,6.79329,-0.0137705,0.00880927,0.0212616,-0.0112063,-0.0225515,-0.00858214,0,0,0,0,0,0,0,0,0,-0.00137078,-0.00580874,-0.00257627,0.016934,-0.000581468,-0.00267484,0.000427896,0.00494694,-0.00039614,-0.0162672,-0.00205064,0.00126389
541,0.00051179,0.00327475,-0.00729115,0.0102078,0.0929127,0.0929127,0.0929127,0.0929127,0.0929127,0.0929127,0.0929127,0.0929127,0.0929127,-0.842913,0.74066,-0.482713,1.22151,0.00327475,-0.00729115,0.0102078,-0.00352103,-0.00364863,0.000548199,0.000862665,0.0122311,-0.00164708,0.0929127,-0.00126927,0.0443558,-0.0003094,-0.010658,-0.00297655,-0.0036797,0.0763255,-0.044654,0.0140749,-0.051986,0.00356774,0.00916642,0.0699351,-0.00575523,-0.0956997,-0.00352103,-0.00364863,0.000548199,0.000862665,0.0122311,-0.00164708,0,0,0,0,0,0,0,0,0,-0.000634596,-2.71187e-05,-0.000528572,-0.000560562,-0.000240797,0.000488991,7.15205e-05,0.000226071,0.000313587,0.000529247,-6.80829e-05,-4.01788e-05
542,0.00051179,0.00721371,-0.00844234,-0.0116378,0.0987057,0.0987057,0.0987057,0.0987057,0.0987057,0.0987057,0.0987057,0.0987057,0.0987057,-0.901294,0.252579,-0.135351,0.945752,0.00721371,-0.00844234,-0.0116378,-0.00716092,0.0146089,-0.00698291,0.00112227,0.00400341,-0.00517237,0.0987057,-0.287069,-1.35968,-0.112368,-0.526524,-0.261844,-0.0280401,-0.582654,1.61431,-0.072496,-0.0998191,-0.0108916,-0.00909694,0.634785,0.0607181,0.603389,-0.00716092,0.0146089,-0.00698291,0.00112227,0.00400341,-0.00517237,0,0,0,0,0,0,0,0,0,-0.000659563,-0.00111339,-0.000509963,-0.000189504,-0.000350529,-0.000467625,8.90107e-07,-6.0124e-05,0.000355206,-0.000160726,-8.75767e-06,0.000635488
543,0.00051179,0.00459659,-0.00960377,0.0258002,0.107382,0.107382,0.107382,0.107382,0.107382,0.107382,0.107382,0.107382,0.107382,-0.892618,0.531238,-0.0256201,1.03906,0.00459659,-0.00960377,0.0258002,0.0105878,-0.0144884,-0.00530943,-0.000537112,0.00211964,-0.00392349,0.107382,-0.234716,-2.15384,-0.0176683,-0.183019,0.19469,0.325894,2.57454,1.95455,-0.0205499,0.0557432,0.0309208,-0.442156,0.13688,0.0554629,-2.15819,0.0105878,-0.0144884,-0.00530943,-0.000537112,0.00211964,-0.00392349,0,0,0,0,0,0,0,0,0,-0.000666313,-0.000897171,-0.000187208,0.00311675,-0.000305856,-0.000134359,0.000118038,0.00024026,0.000469401,8.90988e-05,9.01448e-05,0.00048117
544,0.00051179,0.011541,-0.0159393,-0.0197019,0.0399965,0.0399965,0.0399965,0.0399965,0.0399965,0.0399965,0.0399965,0.0399965,0.0399965,-0.789997,-0.895198,-0.514428,1.30004,0.011541,-0.0159393,-0.0197019,-0.00688649,0.000881758,0.00631648,-0.000240448,-0.0116194,0.0070207,0.0399965,0.0017956,-0.0110775,-0.00115865,-0.000211577,-0.00186214,0.000429705,0.00457583,0.0013987,0.00321768,0.0408783,-0.00389941,-0.0195747,-0.0247274,0.00693667,0.0347008,-0.00688649,0.000881758,0.00631648,-0.000240448,-0.0116194,0.0070207,0,0,0,0,0,0,0,0,0,-0.000690989,-3.91202e-05,0.000501965,-0.000635886,-0.00039106,-0.000504734,1.22033e-06,-0.000290027,0.000356674,0.000703347,0.000134839,5.6121e-05
545,0.00051179,-0.00400593,0.000720629,-0.0157479,0.0308934,0.0308934,0.0308934,0.0308934,0.0308934,0.0308934,0.0308934,0.0308934,0.0308934,-0.969107,0.146966,-0.77763,1.25119,-0.00400593,0.000720629,-0.0157479,-0.00130287,0.000231877,0.00219235,-0.00757158,-0.00175755,0.00115114,0.0308934,-0.00197397,0.0276244,-0.00230189,0.0134704,0.000380922,-7.64504e-05,0.0129985,-0.0239994,-0.000583963,0.000792651,-0.00128549,0.00336967,-0.0149837,-0.00182027,-0.000620291,-0.00130287,0.000231877,0.00219235,-0.00757158,-0.00175755,0.00115114,0,0,0,0,0,0,0,0,0,-0.000351019,-2.42093e-06,-8.67741e-05,-0.000319324,-0.000308031,6.60739e-05,-2.68144e-05,1.17728e-05,0.000312693,0.000340483,-4.22032e-05,1.06176e-05
546,0.00051179,0.0361996,0.008349,-0.0701532,0.0436234,0.0436234,0.0436234,0.0436234,0.0436234,0.0436234,0.0436234,0.0436234,0.0436234,-0.706377,0.831101,0.0183636,1.09089,0.0361996,0.008349,-0.0701532,-0.0160611,0.0203889,-0.0307086,0.040356,-0.012823,-0.0184801,0.0436234,0.903179,6.36017,-0.122236,-0.125002,-0.519394,1.17468,-6.2707,-5.87697,0.0794829,-0.799426,-0.185378,-0.623386,0.916079,0.148136,6.96424,-0.0160611,0.0203889,-0.0307086,0.040356,-0.012823,-0.0184801,0,0,0,0,0,0,0,0,0,-0.000195809,0.00312411,-0.000222954,0.0213118,-0.000416363,-0.000795515,-0.000712282,-0.00593603,0.000271626,-0.00987201,0.00395402,-0.000663196
547,0.00051179,0.0652041,-0.019583,0.0623975,0.0329571,0.0329571,0.0329571,0.0329571,0.0329571,0.0329571,0.0329571,0.0329571,0.0329571,-0.717043,-0.494168,-0.0312483,0.871395,0.0652041,-0.019583,0.0623975,-0.0085168,-0.0132765,0.0755756,-0.00964821,-0.0105257,0.0395793,0.0329571,-1.16839,-7.80068,0.227632,2.33014,0.699582,0.498397,-6.88192,7.03589,-0.300922,0.173041,-0.227979,-1.02169,-2.4836,-0.271371,7.84121,-0.0085168,-0.0132765,0.0755756,-0.00964821,-0.0105257,0.0395793,0,0,0,0,0,0,0,0,0,-0.00106666,-0.00390076,0.00104153,0.0152446,-0.000264758,0.00110203,0.000430921,-0.0028323,7.78437e-05,-0.0095049,0.000447252,0.000824811
548,0.00051179,-0.0397663,-0.02556,-0.0156512,0.0463019,0.0463019,0.0463019,0.0463019,0.0463019,0.0463019,0.0463019,0.0463019,0.0463019,-0.796302,0.759432,-0.0571256,1.10186,-0.0397663,-0.02556,-0.0156512,0.0227655,-0.0241329,0.0142698,-0.0328922,-0.00216216,-0.0233294,0.0463019,-1.2823,-13.8623,0.114365,0.825206,1.07239,0.595986,2.34499,12.8296,-0.0753456,0.675842,-0.0937959,-0.319223,-1.47549,0.229339,-2.01011,0.0227655,-0.0241329,0.0142698,-0.0328922,-0.00216216,-0.0233294,0,0,0,0,0,0,0,0,0,-0.0011039,-0.00495719,0.00017695,0.00708964,-0.00018611,0.000725371,0.00079931,-0.00179327,0.000456788,-0.000987083,0.000833687,0.00237055
549,0.00051179,0.0023197,4.37121e-05,5.30779e-05,0.119849,0.119849,0.119849,0.119849,0.119849,0.119849,0.119849,0.119849,0.119849,-0.880151,0.542008,-0.588707,1.18954,0.0023197,4.37121e-05,5.30779e-05,-0.00283349,-0.000812352,0.000708465,0.000327446,0.00126128,-0.00260103,0.119849,3.60757e-05,0.0278276,-0.00172066,0.0166812,0.000458373,-0.00320887,0.0310702,-0.0306057,0.00943051,-0.016513,-0.000822213,0.00924162,-0.000211961,-0.00218412,-0.0403649,-0.00283349,-0.000812352,0.000708465,0.000327446,0.00126128,-0.00260103,0,0,0,0,0,0,0,0,0,-0.000498019,-1.64972e-05,-0.000341552,-0.000395789,-0.0002841,0.000316221,4.62797e-05,8.02515e-05,0.000316106,0.000370785,-7.58608e-05,-2.64358e-05
550,0.00051179,-0.0114087,0.00522508,0.0131581,0.0395275,0.0395275,0.0395275,0.0395275,0.0395275,0.0395275,0.0395275,0.0395275,0.0395275,-0.960472,-0.377685,0.450707,1.12618,-0.0114087,0.00522508,0.0131581,0.00280766,-0.000616567,-0.000626099,0.00392168,-0.00107099,-0.00660215,0.0395275,0.0188519,-0.170139,-0.0014708,0.00105104,0.000192481,-0.0210032,0.0937333,0.181355,0.0157073,0.0635392,0.00776871,-0.00869008,-0.0698153,0.0190032,-0.0982014,0.00280766,-0.000616567,-0.000626099,0.00392168,-0.00107099,-0.00660215,0,0,0,0,0,0,0,0,0,-0.000544317,4.63482e-05,-0.000267727,-0.000240888,-0.000369245,0.000246854,3.61955e-05,9.03482e-05,0.000308692,2.45952e-05,-2.3371e-05,5.58284e-08
551,0.00051179,-0.00830994,-0.00607376,-0.00535854,0.0368195,0.0368195,0.0368195,0.0368195,0.0368195,0.0368195,0.0368195,0.0368195,0.0368195,-0.96318,0.895932,-0.43271,1.38479,-0.00830994,-0.00607376,-0.00535854,-0.00185895,0.00127178,-0.00608686,0.00141886,-0.0221621,-0.0108012,0.0368195,0.00298639,0.00466084,0.00274266,-0.0585708,-0.0256353,0.000386596,0.0398807,0.0292844,0.00213541,-0.0269115,0.00829986,-0.0255274,0.0915561,-0.000814129,-0.00899482,-0.00185895,0.00127178,-0.00608686,0.00141886,-0.0221621,-0.0108012,0,0,0,0,0,0,0,0,0,-0.000756301,1.36375e-05,-0.000684223,-0.000703041,-0.000292981,0.000724367,2.57717e-05,0.00014181,0.000215866,0.000646038,-0.000280433,-5.00763e-05
552,0.00051179,-0.0122184,-0.0108302,-0.0227604,0.102352,0.102352,0.102352,0.102352,0.102352,0.102352,0.102352,0.102352,0.102352,-0.897648,0.663123,-0.339669,1.16657,-0.0122184,-0.0108302,-0.0227604,-0.00601014,-0.00457023,0.00652892,-0.00593321,0.000828858,-0.00513473,0.102352,-0.0620347,0.821311,0.00877071,-0.036378,0.0402285,-0.0618663,0.399216,-0.849321,0.0194174,0.0382973,0.00821291,0.121734,0.00891095,-0.0499473,-0.498189,-0.00601014,-0.00457023,0.00652892,-0.00593321,0.000828858,-0.00513473,0,0,0,0,0,0,0,0,0,-0.000676565,-0.000213713,-0.000545347,-0.000782682,-0.0002509,0.000587351,0.000193932,0.000164007,0.000280172,0.000229309,-7.35896e-05,-0.000148899
553,0.00051179,-0.00641727,-0.013484,0.00223386,0.0692341,0.0692341,0.0692341,0.0692341,0.0692341,0.0692341,0.0692341,0.0692341,0.0692341,-0.819234,-0.43786,-0.254975,0.963264,-0.00641727,-0.013484,0.00223386,-0.0136316,0.0119539,-0.0205065,-0.00536785,0.0261798,-0.0049593,0.0692341,-0.0716717,2.1548,0.00343347,-0.225482,0.0310048,-0.114933,1.81306,-2.17939,0.00586837,-0.188851,0.00937571,0.0638699,0.427818,-0.142106,-1.87917,-0.0136316,0.0119539,-0.0205065,-0.00536785,0.0261798,-0.0049593,0,0,0,0,0,0,0,0,0,-0.000683837,-0.000158976,0.000512362,-0.00179029,-0.000345135,-0.000358488,0.000270043,0.000239464,0.000316471,0.000435896,0.000116091,-0.000467788
554,0.00051179,-0.0108738,0.038159,0.0285174,0.0308478,0.0308478,0.0308478,0.0308478,0.0308478,0.0308478,0.0308478,0.0308478,0.0308478,-0.780848,-0.0328371,0.233473,0.815666,-0.0108738,0.038159,0.0285174,0.0137217,-0.00446186,0.0051489,0.0110267,0.00282881,-0.0228559,0.0308478,0.00744791,-0.430614,0.0013522,-0.000963744,0.0182499,-0.0151286,0.721713,0.423238,0.0561138,0.0447969,0.00285789,-0.134394,-0.0819922,0.0391915,-0.615836,0.0137217,-0.00446186,0.0051489,0.0110267,0.00282881,-0.0228559,0,0,0,0,0,0,0,0,0,-0.000513352,-1.48969e-05,-4.94614e-05,-0.000633887,-0.00035351,1.83647e-05,0.000214957,7.38099e-05,0.000335731,0.000534091,-1.6943e-05,-3.90669e-05
555,0.00051179,0.000112146,0.0169227,-0.0160215,0.0401115,0.0401115,0.0401115,0.0401115,0.0401115,0.0401115,0.0401115,0.0401115,0.0401115,-0.959889,0.139659,0.0252913,0.970325,0.000112146,0.0169227,-0.0160215,0.00962667,0.000383153,-0.015078,0.00150681,0.00545282,0.00432533,0.0401115,0.0348601,0.171139,0.0068341,0.10718,-0.0120378,0.0913016,0.314095,-0.159213,0.0429995,-0.00408038,0.0200217,0.206038,-0.120022,-0.0263906,-0.504111,0.00962667,0.000383153,-0.015078,0.00150681,0.00545282,0.00432533,0,0,0,0,0,0,0,0,0,-0.000541002,0.000145209,1.24804e-06,0.00030758,-0.000323767,7.09245e-05,0.000145307,0.000109912,0.000367031,0.000454656,0.000144833,-0.000187551
556,0.00051179,-0.00463378,-0.00536369,0.0128226,0.0406953,0.0406953,0.0406953,0.0406953,0.0406953,0.0406953,0.0406953,0.0406953,0.0406953,-0.790695,0.405941,0.307476,0.940494,-0.00463378,-0.00536369,0.0128226,-0.00118947,-0.0094629,-0.00646379,-0.00111018,-0.0211503,0.00603899,0.0406953,0.00405528,-0.240564,0.0012439,-0.070421,-0.00550418,-0.0155612,0.574219,0.250702,-0.0246518,-0.116948,-0.0111306,0.0437905,0.192733,0.0464808,-0.630832,-0.00118947,-0.0094629,-0.00646379,-0.00111018,-0.0211503,0.00603899,0,0,0,0,0,0,0,0,0,-0.000464492,-1.98521e-05,0.000373013,-0.000819962,-0.000347311,-0.000455203,-0.000162991,-0.000248902,0.000300705,0.000599712,-7.39071e-05,0.000228418
557,0.00051179,-0.00665992,-0.00163602,-0.00574265,0.0601155,0.0601155,0.0601155,0.0601155,0.0601155,0.0601155,0.0601155,0.0601155,0.0601155,-0.939884,-0.578811,-0.518249,1.21942,-0.00665992,-0.00163602,-0.00574265,-0.00702443,0.00109639,-0.0035405,-0.00521139,0.00354654,0.00459939,0.0601155,-0.00775819,0.124415,-0.00245541,0.0162853,0.0049602,-0.0108594,0.0867454,-0.122715,0.00163494,0.000968301,-0.00541983,0.00433908,-0.0156176,-0.00724129,-0.0853418,-0.00702443,0.00109639,-0.0035405,-0.00521139,0.00354654,0.00459939,0,0,0,0,0,0,0,0,0,-0.000534043,-4.96812e-05,0.000400468,-0.000376359,-0.000311935,-0.000414059,6.34964e-06,-0.000111339,0.000315465,0.00023236,9.26065e-05,1.10224e-05
558,0.00051179,0.025938,-0.0352987,-0.0171535,0.0602951,0.0602951,0.0602951,0.0602951,0.0602951,0.0602951,0.0602951,0.0602951,0.0602951,-0.689705,-0.199299,-0.0282348,0.718478,0.025938,-0.0352987,-0.0171535,-0.00656877,-0.0147773,0.0146698,-0.000414059,0.00382112,0.00676413,0.0602951,-0.279942,-0.415452,0.198505,1.31637,-1.04603,0.0656521,-3.49235,1.43554,-0.2191,0.421125,-0.21317,1.14873,-1.7022,-0.0783584,2.36077,-0.00656877,-0.0147773,0.0146698,-0.000414059,0.00382112,0.00676413,0,0,0,0,0,0,0,0,0,-0.000709809,-0.000766071,0.00107062,0.00531245,-0.000250632,0.000766659,-0.000431086,-0.0036192,0.000219904,-0.00450923,0.00152572,0.000308512
559,0.00051179,-0.00783247,0.0253533,0.0162588,0.0436815,0.0436815,0.0436815,0.0436815,0.0436815,0.0436815,0.0436815,0.0436815,0.0436815,-0.793682,-0.0983461,0.240836,0.835227,-0.00783247,0.0253533,0.0162588,0.00961833,-0.00693406,-0.00274539,0.00718077,0.0119298,-0.0141566,0.0436815,0.0121114,-0.543771,-0.000268035,0.0538384,0.0222781,-0.0228587,0.707886,0.529325,0.0545196,0.120653,0.0107363,-0.126897,-0.199844,0.0416456,-0.597248,0.00961833,-0.00693406,-0.00274539,0.00718077,0.0119298,-0.0141566,0,0,0,0,0,0,0,0,0,-0.000511155,-1.9335e-05,-0.000149704,-0.00065629,-0.000366265,7.76834e-05,0.000180518,0.000200597,0.000329368,0.000400249,2.60633e-05,9.46162e-06
560,0.00051179,0.0132438,-0.00955714,-0.0265106,0.0434269,0.0434269,0.0434269,0.0434269,0.0434269,0.0434269,0.0434269,0.0434269,0.0434269,-0.956573,0.465618,-0.420202,1.14385,0.0132438,-0.00955714,-0.0265106,-0.00716886,-0.00111017,0.00107403,0.00729728,-0.00368206,0.00614261,0.0434269,-0.0415516,0.429336,0.00209791,0.00970287,0.0174488,-0.0387155,0.222042,-0.460028,-0.0120758,0.0602026,-0.00618596,0.0253737,-0.0603483,-0.0248296,-0.220905,-0.00716886,-0.00111017,0.00107403,0.00729728,-0.00368206,0.00614261,0,0,0,0,0,0,0,0,0,-0.000533067,-0.000160311,-0.000331239,-0.000388308,-0.00030827,0.000341116,5.93988e-05,-1.71617e-05,0.000299849,1.1893e-05,-8.15186e-05,-1.01435e-05
561,0.00051179,0.0128463,-0.00237546,0.0161778,0.0235816,0.0235816,0.0235816,0.0235816,0.0235816,0.0235816,0.0235816,0.0235816,0.0235816,-0.976418,0.166883,-0.497064,1.10829,0.0128463,-0.00237546,0.0161778,-0.000935805,-0.00110904,0.00144148,0.0102955,-0.00649818,0.00396236,0.0235816,-0.0109859,0.122811,0.000242896,-0.0296889,-0.00134897,-0.0138624,0.0674012,-0.134309,-0.0166654,0.0163979,-0.00436417,-0.00651857,0.0156665,-0.00725149,-0.0770605,-0.000935805,-0.00110904,0.00144148,0.0102955,-0.00649818,0.00396236,0,0,0,0,0,0,0,0,0,-0.000442438,-3.47078e-05,-0.000102422,-0.000352427,-0.000314111,9.37604e-05,-6.94837e-06,-8.3862e-05,0.000311911,0.000228218,-2.47615e-05,8.45511e-06
562,0.00051179,0.00785406,0.00154646,-0.00452044,0.0501058,0.0501058,0.0501058,0.0501058,0.0501058,0.0501058,0.0501058,0.0501058,0.0501058,-0.949894,0.082632,-0.554607,1.10305,0.00785406,0.00154646,-0.00452044,-0.00313362,0.000568018,0.00405045,-0.0055318,-0.0018919,-0.000518138,0.0501058,-0.00327705,0.0444851,-0.00228804,-0.0045424,-0.000131147,-0.00737415,0.0348969,-0.052208,0.00254749,0.00937395,-0.00553427,0.000212808,-0.00637801,-0.00420213,-0.0305892,-0.00313362,0.000568018,0.00405045,-0.0055318,-0.0018919,-0.000518138,0,0,0,0,0,0,0,0,0,-0.000416957,-1.57665e-05,-5.17358e-05,-0.000325986,-0.000308538,3.45356e-05,1.36525e-06,-4.61793e-05,0.000321336,0.000292749,-2.80824e-05,-7.31453e-06
563,0.00051179,-0.00936985,-0.0210958,-0.00822353,0.0949055,0.0949055,0.0949055,0.0949055,0.0949055,0.0949055,0.0949055,0.0949055,0.0949055,-0.905095,-0.406786,0.11213,0.998621,-0.00936985,-0.0210958,-0.00822353,0.00790404,0.00147641,0.000194777,-0.00175565,-0.005542,-0.00204283,0.0949055,0.515414,3.24201,-0.0631413,-0.997357,-0.246139,0.0154903,-0.459232,-2.9865,0.110167,0.0667837,-0.0106245,-0.0595271,0.951669,-0.101141,0.526982,0.00790404,0.00147641,0.000194777,-0.00175565,-0.005542,-0.00204283,0,0,0,0,0,0,0,0,0,-0.000389032,0.00200673,-0.000481896,0.000554406,-0.000417853,-0.000134752,-6.78046e-05,-7.67782e-05,0.000388689,-0.000397555,-8.48871e-05,-0.00112578
564,0.00051179,-0.00789478,-0.00224614,0.00626078,0.105312,0.105312,0.105312,0.105312,0.105312,0.105312,0.105312,0.105312,0.105312,-0.894688,0.394936,0.54955,1.1218,-0.00789478,-0.00224614,0.00626078,-0.00238939,0.00146803,-0.000175832,0.00171004,-0.00373464,0.00855772,0.105312,0.00383474,-0.0506548,-0.00122189,0.0148196,-0.00231523,-0.00533412,0.0590944,0.0608648,0.00142599,-0.0139092,-0.000547206,-0.000912042,0.00133579,0.00755103,-0.0644432,-0.00238939,0.00146803,-0.000175832,0.00171004,-0.00373464,0.00855772,0,0,0,0,0,0,0,0,0,-0.000568904,-1.66465e-05,0.00024752,-0.000277408,-0.000335896,-0.000245059,-8.19307e-06,-1.18314e-05,0.000298969,0.000222308,-3.09871e-05,5.66705e-05
565,0.00051179,0.00102239,-0.000989601,0.0107079,0.0678733,0.0678733,0.0678733,0.0678733,0.0678733,0.0678733,0.0678733,0.0678733,0.0678733,-0.932127,0.204059,0.48882,1.07212,0.00102239,-0.000989601,0.0107079,7.42585e-05,0.00212138,-0.0004347,0.00638116,-0.00625317,0.0048987,0.0678733,0.00910659,-0.0981248,-0.000565998,-0.0132613,0.00157625,-0.0110571,0.0810013,0.0955262,0.0132904,-0.0279117,-0.000520046,-0.0158257,0.0421625,0.0126191,-0.0758836,7.42585e-05,0.00212138,-0.0004347,0.00638116,-0.00625317,0.0048987,0,0,0,0,0,0,0,0,0,-0.000588544,-7.5998e-06,0.000137706,-0.000261413,-0.000330353,-0.000122152,4.48536e-05,-3.63684e-05,0.000295721,0.000146495,-3.13638e-05,3.4085e-05
566,0.00051179,-0.0852404,0.0142692,-0.0162406,0.0460931,0.0460931,0.0460931,0.0460931,0.0460931,0.0460931,0.0460931,0.0460931,0.0460931,-0.796093,-0.721029,-0.181368,1.08928,-0.0852404,0.0142692,-0.0162406,-0.0156441,6.88806e-05,-0.0363806,-0.0291347,0.0168176,0.004182,0.0460931,-0.402716,5.69033,-0.0681379,0.330196,0.363398,-0.365274,0.523385,-5.96849,0.00838037,-0.178523,-0.0762735,0.486234,-0.165942,-0.314006,-0.993379,-0.0156441,6.88806e-05,-0.0363806,-0.0291347,0.0168176,0.004182,0,0,0,0,0,0,0,0,0,-0.00103434,-0.00122764,0.000114245,-0.00423545,-0.000496441,-0.000794935,0.000760389,-0.000210843,0.000283696,0.000218906,-0.000383715,-0.000684962
567,0.00051179,0.0168156,0.0143619,-0.0503257,0.000138844,0.000138844,0.000138844,0.000138844,0.000138844,0.000138844,0.000138844,0.000138844,0.000138844,-0.999861,-0.391141,-0.356195,1.13119,0.0168156,0.0143619,-0.0503257,0.000235643,-0.0121277,0.00604997,-0.0119098,-0.0203084,0.0206031,0.000138844,-0.0985048,0.417791,0.0139583,-0.0411829,0.029223,-0.0687474,0.0902704,-0.463829,-0.0281131,-0.0654665,0.0157163,-0.00718102,0.0922876,-0.0230451,-0.0327637,0.000235643,-0.0121277,0.00604997,-0.0119098,-0.0203084,0.0206031,0,0,0,0,0,0,0,0,0,-0.000520281,-0.00032896,0.000215952,-0.000340878,-0.000303799,-0.000197645,-3.77289e-05,-1.80948e-05,0.000335611,-0.000286096,-2.78265e-05,0.000150176
568,0.00051179,0.0175091,-0.00609022,0.00073868,0.1137,0.1137,0.1137,0.1137,0.1137,0.1137,0.1137,0.1137,0.1137,-0.8863,-0.490267,0.232826,1.03928,0.0175091,-0.00609022,0.00073868,-0.00667805,1.70209e-05,0.0165114,0.000240122,-0.00900408,0.00631678,0.1137,0.263249,-1.09777,-0.016176,0.0164392,-0.139574,-0.176113,-0.658226,1.21983,0.0405662,0.163164,0.0383327,0.138055,-0.173513,0.0693673,0.519432,-0.00667805,1.70209e-05,0.0165114,0.000240122,-0.00900408,0.00631678,0,0,0,0,0,0,0,0,0,-0.000373527,0.000852399,-0.000497136,-0.00111941,-0.000379289,0.000335547,-0.000226424,0.000227964,0.000291005,-0.000476614,6.53226e-05,-5.20348e-05
569,0.00051179,-0.00809447,-0.00584583,-0.018522,0.0678117,0.0678117,0.0678117,0.0678117,0.0678117,0.0678117,0.0678117,0.0678117,0.0678117,-0.932188,-0.0501087,-0.314331,0.985033,-0.00809447,-0.00584583,-0.018522,-0.00620279,-0.000556715,-0.00502203,0.00195376,-0.00329136,-0.00220246,0.0678117,-0.0272802,0.167185,0.00360806,-0.0152982,-0.0343974,-0.0258252,-0.030078,-0.124694,-0.0287109,0.0179422,-0.000433026,-0.0391153,0.00320183,-0.00943847,0.0877153,-0.00620279,-0.000556715,-0.00502203,0.00195376,-0.00329136,-0.00220246,0,0,0,0,0,0,0,0,0,-0.000511877,-8.44752e-05,2.8302e-05,-0.000454719,-0.000320369,2.21139e-06,-5.08462e-05,-1.43732e-05,0.00032606,0.000146247,-2.28706e-05,2.47351e-05
570,0.00051179,0.000313261,0.00646067,-0.00493032,0.0146606,0.0146606,0.0146606,0.0146606,0.0146606,0.0146606,0.0146606,0.0146606,0.0146606,-0.764661,0.529221,-0.742178,1.18979,0.000313261,0.00646067,-0.00493032,-0.0121152,-0.00670444,1.34297e-05,0.00790006,0.00780025,-0.00187258,0.0146606,0.000610784,-0.000362569,-0.000364475,0.00913503,0.00069063,0.000194632,0.0150576,-0.000641323,0.00488333,-0.0040501,-0.00135836,0.000890668,-0.0115456,0.000888295,-0.011018,-0.0121152,-0.00670444,1.34297e-05,0.00790006,0.00780025,-0.00187258,0,0,0,0,0,0,0,0,0,-0.00043682,-5.78619e-05,-0.000270611,-0.000406809,-0.000267202,0.000199921,6.35769e-05,0.000115344,0.000365607,0.00040889,-5.09248e-05,-5.2615e-06
571,0.00051179,0.0543828,-0.0581822,-0.132732,0.0247785,0.0247785,0.0247785,0.0247785,0.0247785,0.0247785,0.0247785,0.0247785,0.0247785,-0.725222,-0.329198,0.0482291,0.797899,0.0543828,-0.0581822,-0.132732,0.0283242,0.0226048,0.0442911,-0.0414814,0.0363915,-0.0107335,0.0247785,0.956475,5.92989,-0.385696,-3.48773,0.496888,0.232295,-4.00209,-6.48116,0.411348,-0.646568,-0.225455,0.157819,4.19248,0.154564,3.977,0.0283242,0.0226048,0.0442911,-0.0414814,0.0363915,-0.0107335,0,0,0,0,0,0,0,0,0,-0.000137202,0.00319496,-0.00179828,0.00765609,-0.000520999,-0.00183263,0.000120299,-0.00267307,0.000221737,-0.00489022,0.000782431,-0.00100988
572,0.00051179,0.00130671,0.0080675,-0.00326889,0.0642573,0.0642573,0.0642573,0.0642573,0.0642573,0.0642573,0.0642573,0.0642573,0.0642573,-0.935743,-0.347587,-0.572083,1.15053,0.00130671,0.0080675,-0.00326889,-0.00454792,0.00273331,-0.000666853,-0.00928119,0.00176413,8.1705e-05,0.0642573,-0.00311075,0.0524599,-0.00240939,0.0107799,1.68652e-05,-0.00645232,0.0435575,-0.0537835,0.00516243,-0.000579518,-0.00473551,-0.00365784,-0.0182679,-0.00368989,-0.0366308,-0.00454792,0.00273331,-0.000666853,-0.00928119,0.00176413,8.1705e-05,0,0,0,0,0,0,0,0,0,-0.000444628,-2.05407e-05,0.000213738,-0.000324294,-0.000308836,-0.000210499,-2.84118e-06,-5.46486e-05,0.000328898,0.000253102,2.49347e-05,-2.88283e-07
573,0.00051179,0.00382249,0.00779874,-0.000374944,0.02373,0.02373,0.02373,0.02373,0.02373,0.02373,0.02373,0.02373,0.02373,-0.77373,0.478917,0.668769,1.12928,0.00382249,0.00779874,-0.000374944,0.00414049,0.00452154,-0.000986626,-0.0105868,0.00820881,0.00792775,0.02373,-2.84165e-05,-0.00553226,0.000380583,-0.0087801,0.000152442,0.000475917,0.00685224,0.00155733,-0.00381883,0.00182143,-0.00114917,0.000706921,-0.000840062,-0.000100363,-0.00718422,0.00414049,0.00452154,-0.000986626,-0.0105868,0.00820881,0.00792775,0,0,0,0,0,0,0,0,0,-0.000580259,2.3406e-05,0.000262775,-0.000274994,-0.000366474,-0.000213754,-6.91827e-05,6.79849e-05,0.000336573,0.000269887,2.61142e-06,4.19826e-05
574,0.00051179,0.00778508,0.0117042,-0.00810819,0.0419632,0.0419632,0.0419632,0.0419632,0.0419632,0.0419632,0.0419632,0.0419632,0.0419632,-0.791963,0.852252,-0.653681,1.33448,0.00778508,0.0117042,-0.00810819,-0.00884278,-0.00133404,-8.7332e-05,-0.00357435,0.0108852,0.00300345,0.0419632,0.00119789,-0.00599614,-0.000741594,0.011063,-0.000716389,0.000130866,0.00614569,-0.00107254,0.00259144,-0.0150675,-0.00106813,0.00439436,-0.00769967,0.00194877,-0.00243186,-0.00884278,-0.00133404,-8.7332e-05,-0.00357435,0.0108852,0.00300345,0,0,0,0,0,0,0,0,0,-0.000591852,-3.39834e-05,-0.00041821,-0.000584332,-0.000251615,0.000397454,-6.73484e-07,0.000193108,0.000333391,0.000584768,-9.49374e-05,2.90021e-05
575,0.00051179,0.00521479,0.0124744,-0.0357999,0.023341,0.023341,0.023341,0.023341,0.023341,0.023341,0.023341,0.023341,0.023341,-0.976659,0.187858,0.251334,1.02583,0.00521479,0.0124744,-0.0357999,0.00889064,-0.00898144,0.000370649,-0.00659353,0.00943092,0.00707907,0.023341,0.0857921,-0.0151102,0.0258713,-0.00224823,0.0508084,-0.0294836,-0.214699,-0.040913,0.0783026,-0.0243737,-0.0154377,-0.0622018,0.0141475,-0.0138415,0.312701,0.00889064,-0.00898144,0.000370649,-0.00659353,0.00943092,0.00707907,0,0,0,0,0,0,0,0,0,-0.000522345,0.000289226,0.000107452,-0.000214289,-0.000314588,6.14472e-05,0.000174358,-9.36753e-05,0.000300132,-7.68412e-05,3.36079e-05,-0.000218
576,0.00051179,-0.00316451,0.00155762,0.00265868,0.117322,0.117322,0.117322,0.117322,0.117322,0.117322,0.117322,0.117322,0.117322,-0.867322,-0.570423,0.483468,1.14515,-0.00316451,0.00155762,0.00265868,-0.00331761,0.00125682,2.16868e-05,-0.00672569,-0.00143805,0.00850906,0.117322,0.00397922,-0.0702958,0.00053782,-0.00305196,-0.00848279,-0.0077263,0.0916133,0.0819431,-0.00177522,0.0124772,-0.000800803,0.0201528,-0.0109829,0.010856,-0.114425,-0.00331761,0.00125682,2.16868e-05,-0.00672569,-0.00143805,0.00850906,0,0,0,0,0,0,0,0,0,-0.000485323,-9.99087e-06,-0.000417874,-0.000309757,-0.000332231,0.000435821,-5.58035e-05,-9.2406e-06,0.000323951,0.000232711,-1.31479e-05,8.35263e-05
577,0.00051179,-0.0390902,-0.0133303,0.0128396,0.0153232,0.0153232,0.0153232,0.0153232,0.0153232,0.0153232,0.0153232,0.0153232,0.0153232,-0.765323,-0.394895,-0.513356,1.00259,-0.0390902,-0.0133303,0.0128396,-0.00119231,0.0110993,0.00356702,0.0201963,-0.0012476,0.0150944,0.0153232,8.01235e-05,0.0443541,-0.00050097,0.00901662,0.000827464,-0.000288598,0.0202046,-0.00609131,0.0167769,0.0245761,-0.00619505,-0.000126459,-0.0202625,-0.00764885,-0.0329178,-0.00119231,0.0110993,0.00356702,0.0201963,-0.0012476,0.0150944,0,0,0,0,0,0,0,0,0,-0.00048212,-5.55301e-05,0.000264624,-0.000384538,-0.000356251,-0.000158641,0.000134897,-8.65452e-05,0.00038407,0.000417322,1.21186e-05,-1.27413e-05
578,0.00051179,-0.00125736,0.00368195,-0.00555263,0.0685243,0.0685243,0.0685243,0.0685243,0.0685243,0.0685243,0.0685243,0.0685243,0.0685243,-0.931476,-0.175586,-0.734718,1.19929,-0.00125736,0.00368195,-0.00555263,-0.0035371,0.00294129,0.000665892,-0.0057983,-0.00136154,-0.000429261,0.0685243,-0.00155704,0.0249274,-0.00221574,0.0127792,-0.00070551,-0.00106272,0.00796989,-0.0229645,0.000752343,0.00160433,-0.00209759,-0.00100944,-0.0180655,-0.00127413,-0.00140782,-0.0035371,0.00294129,0.000665892,-0.0057983,-0.00136154,-0.000429261,0,0,0,0,0,0,0,0,0,-0.00036592,-1.18051e-05,9.91031e-05,-0.000320349,-0.000303382,-9.18476e-05,-1.15642e-05,-3.50033e-05,0.000332162,0.000316381,4.11996e-07,5.14861e-06
579,0.00051179,-0.00481558,0.018226,-0.0454979,0.0391994,0.0391994,0.0391994,0.0391994,0.0391994,0.0391994,0.0391994,0.0391994,0.0391994,-0.710801,-0.66545,0.0101164,0.973737,-0.00481558,0.018226,-0.0454979,0.0357428,-0.0220832,0.0673317,0.0139779,-0.0290266,-0.00580712,0.0391994,0.468444,3.15235,-0.00279199,-0.0795187,-0.437612,0.836571,-7.90137,-2.70992,0.101568,0.167783,-0.0200452,-1.67972,-0.10649,0.10494,9.6266,0.0357428,-0.0220832,0.0673317,0.0139779,-0.0290266,-0.00580712,0,0,0,0,0,0,0,0,0,-0.000354066,0.00169147,-3.7483e-05,0.0211275,-0.000362331,-0.000211269,-0.000251731,0.000320572,3.49209e-05,-0.0120884,-0.00081129,-0.000333796
580,0.00051179,0.00377403,-0.010215,0.00348207,0.0598825,0.0598825,0.0598825,0.0598825,0.0598825,0.0598825,0.0598825,0.0598825,0.0598825,-0.940118,-0.852713,0.618026,1.4117,0.00377403,-0.010215,0.00348207,0.000818804,-0.000656538,-0.00141628,0.00331663,0.011186,0.00775797,0.0598825,0.0027196,-0.0159754,0.000927873,-0.0125396,0.003154,-0.00232007,0.0225007,0.00904736,0.00154082,0.0153772,-0.00138779,-0.0106318,0.00737728,0.00101877,-0.015351,0.000818804,-0.000656538,-0.00141628,0.00331663,0.011186,0.00775797,0,0,0,0,0,0,0,0,0,-0.000406303,-2.12253e-06,-0.000484281,-0.000458507,-0.000365043,0.000486995,4.47274e-06,2.14457e-05,0.000296727,0.000421143,7.65363e-05,2.40692e-05
581,0.00051179,-0.0113209,0.00532914,0.00606517,0.0901276,0.0901276,0.0901276,0.0901276,0.0901276,0.0901276,0.0901276,0.0901276,0.0901276,-0.909872,0.110024,-0.42014,1.00821,-0.0113209,0.00532914,0.00606517,-0.00322642,-0.00136692,-0.000923742,-7.88583e-05,-0.00700175,-0.00317878,0.0901276,-0.0115448,0.141224,0.000592716,-0.0179002,-0.000205344,-0.0174215,0.111447,-0.129698,-0.00540777,0.0184769,-0.00613287,-0.00803958,-0.00590589,-0.0144305,-0.109473,-0.00322642,-0.00136692,-0.000923742,-7.88583e-05,-0.00700175,-0.00317878,0,0,0,0,0,0,0,0,0,-0.0004697,-3.01634e-05,-7.76066e-05,-0.000434071,-0.000316108,6.98646e-05,1.62597e-05,-9.11068e-05,0.000327967,0.000250619,-4.02394e-05,-4.43533e-05
582,0.00051179,-0.000635413,0.000962451,0.00166586,0.116828,0.116828,0.116828,0.116828,0.116828,0.116828,0.116828,0.116828,0.116828,-0.883172,0.848111,0.602036,1.36445,-0.000635413,0.000962451,0.00166586,-0.00285994,9.26293e-05,0.000886951,0.000328041,0.00263002,0.0052296,0.116828,0.00170322,-0.0159665,-0.000448935,0.0104036,0.000986703,-0.00127791,0.0218437,0.0156152,-0.000962215,0.00163583,-0.000218215,-0.00199306,-0.0130019,0.000475075,-0.0215165,-0.00285994,9.26293e-05,0.000886951,0.000328041,0.00263002,0.0052296,0,0,0,0,0,0,0,0,0,-0.000427812,-1.02995e-05,0.000421823,-0.000494726,-0.000345195,-0.000425386,-7.68677e-06,7.59105e-05,0.000289358,0.000490816,-5.17924e-05,2.40075e-05
583,0.00051179,0.00219915,-0.00452126,8.12784e-05,0.109899,0.109899,0.109899,0.109899,0.109899,0.109899,0.109899,0.109899,0.109899,-0.890101,0.652207,-0.595763,1.25403,0.00219915,-0.00452126,8.12784e-05,-0.00284038,-0.00168841,0.00078306,-0.000893314,0.000338138,-0.00152962,0.109899,2.77907e-05,0.029893,-0.00182145,0.0155489,0.00113351,-0.00261619,0.0265157,-0.0332257,0.00675146,-0.0203127,0.000147018,0.00797533,0.00928508,-0.00166063,-0.0345723,-0.00284038,-0.00168841,0.00078306,-0.000893314,0.000338138,-0.00152962,0,0,0,0,0,0,0,0,0,-0.000536062,-1.3896e-05,-0.000403969,-0.000456379,-0.000284011,0.00036887,2.94577e-05,0.000111025,0.000302427,0.000438048,-0.000106174,-1.57843e-05
584,0.00051179,0.00320799,0.000666615,-0.0261622,0.00153008,0.00153008,0.00153008,0.00153008,0.00153008,0.00153008,0.00153008,0.00153008,0.00153008,-0.99847,0.550072,-0.705229,1.34047,0.00320799,0.000666615,-0.0261622,-0.00639236,-0.00147274,-0.00159078,-0.0132596,-0.00968479,0.00872713,0.00153008,-0.00230496,0.0317571,-0.00330611,0.0179055,0.00160139,-0.00146672,0.026537,-0.0365665,0.0018252,-0.00511986,-0.000377274,0.00648031,-0.0134523,-0.00244759,-0.00685505,-0.00639236,-0.00147274,-0.00159078,-0.0132596,-0.00968479,0.00872713,0,0,0,0,0,0,0,0,0,-0.000452638,-2.75033e-05,-0.000296735,-0.000395275,-0.000323588,0.000248947,-4.11887e-05,4.05475e-05,0.000271797,0.0003647,-0.000141168,4.7381e-05
585,0.00051179,-0.00044076,0.00197123,-0.00505939,0.119799,0.119799,0.119799,0.119799,0.119799,0.119799,0.119799,0.119799,0.119799,-0.880201,0.172788,-0.604177,1.0815,-0.00044076,0.00197123,-0.00505939,-0.00360754,-0.000609595,0.00196693,-0.00106633,-0.00246599,-0.00168815,0.119799,-0.000157043,0.022776,-0.00212853,0.0152616,0.000583072,-0.00326269,0.0282935,-0.0229183,0.00922461,0.00298528,-0.00349414,0.0050332,-0.0202181,-0.00185092,-0.0282673,-0.00360754,-0.000609595,0.00196693,-0.00106633,-0.00246599,-0.00168815,0,0,0,0,0,0,0,0,0,-0.000409678,-1.9809e-05,-0.000110403,-0.000313189,-0.000301296,8.3022e-05,3.98053e-05,-1.45488e-05,0.000339076,0.000300231,-4.50525e-05,-1.86814e-05
586,0.00051179,0.00205917,0.00645433,-0.031465,0.00246717,0.00246717,0.00246717,0.00246717,0.00246717,0.00246717,0.00246717,0.00246717,0.00246717,-0.997533,0.112317,-0.405208,1.08253,0.00205917,0.00645433,-0.031465,-0.00780671,0.000420521,-0.00398741,0.00849531,-0.0111654,0.000970187,0.00246717,-0.0221854,0.0709097,0.00259728,-0.0262401,-0.0140041,-0.0228055,0.0202456,-0.0589648,-0.0281559,0.00747556,0.000204579,-0.0237816,0.0123102,-0.00691988,0.035001,-0.00780671,0.000420521,-0.00398741,0.00849531,-0.0111654,0.000970187,0,0,0,0,0,0,0,0,0,-0.000471637,-8.58041e-05,-5.9106e-05,-0.000398834,-0.000324214,8.9284e-05,-3.41463e-05,-9.92513e-05,0.00031054,0.000130904,-1.03569e-05,3.44082e-05
587,0.00051179,-0.00672927,-0.000682067,0.00278239,0.0382514,0.0382514,0.0382514,0.0382514,0.0382514,0.0382514,0.0382514,0.0382514,0.0382514,-0.95971,-0.50919,-0.961749,1.45096,-0.00672927,-0.000682067,0.00278239,-0.00677889,-0.0013942,0.00217855,-0.014631,0.00183374,0.000198382,0.0382514,0.00224157,-0.00787774,-0.000659935,0.00329349,0.000481789,0.000721365,-0.000196437,0.0141252,-0.00160772,-0.0018317,7.05952e-05,-0.000120406,-0.000779718,-0.00189286,-0.00246555,-0.00677889,-0.0013942,0.00217855,-0.014631,0.00183374,0.000198382,0,0,0,0,0,0,0,0,0,-0.000349283,3.24088e-06,0.000215881,-0.000370212,-0.000276143,-0.000236423,-5.5266e-05,-6.53733e-05,0.000306204,0.000399211,8.44167e-05,1.74551e-05
588,0.00051179,-0.00295603,0.0129482,-0.0134126,0.0828359,0.0828359,0.0828359,0.0828359,0.0828359,0.0828359,0.0828359,0.0828359,0.0828359,-0.917164,-0.588627,-0.375105,1.15255,-0.00295603,0.0129482,-0.0134126,-0.00517494,-0.00144618,0.00541524,-0.00241452,-0.000614818,0.000650911,0.0828359,-0.0521493,0.625182,-0.00252806,-0.0194723,0.0569866,-0.0536054,0.357422,-0.679213,0.00118281,-0.0679621,-0.00302006,0.0655309,0.0744861,-0.0385798,-0.40954,-0.00517494,-0.00144618,0.00541524,-0.00241452,-0.000614818,0.000650911,0,0,0,0,0,0,0,0,0,-0.000603177,-0.000175293,0.000450288,-0.000572915,-0.00033986,-0.00049003,0.00010517,-0.000105138,0.000314519,9.10141e-05,6.87889e-05,-7.83155e-05
589,0.00051179,0.001289,-0.00212115,0.00384182,0.0560381,0.0560381,0.0560381,0.0560381,0.0560381,0.0560381,0.0560381,0.0560381,0.0560381,-0.806038,-0.770203,0.918654,1.44459,0.001289,-0.00212115,0.00384182,0.00233957,0.00230358,-0.000291765,0.000853947,-0.00296856,0.0056145,0.0560381,0.00100483,-0.00252424,-0.00030338,-0.00104737,0.000739985,0.000403397,-0.0009477,0.000495263,-0.00109171,-0.000496918,-0.000525216,-0.000215388,0.00366544,-0.000853676,-0.00267874,0.00233957,0.00230358,-0.000291765,0.000853947,-0.00296856,0.0056145,0,0,0,0,0,0,0,0,0,-0.000565231,7.64417e-06,-0.000297443,-0.000417214,-0.000316823,0.000317445,-1.02666e-05,-2.91287e-05,0.000359066,0.00041833,-5.80903e-06,1.47263e-05
590,0.00051179,0.00460792,0.00320637,0.0148884,0.0571317,0.0571317,0.0571317,0.0571317,0.0571317,0.0571317,0.0571317,0.0571317,0.0571317,-0.942868,0.681677,0.0836354,1.16648,0.00460792,0.00320637,0.0148884,-0.000909984,0.0136636,0.0133697,0.0182869,0.00254769,0.0130028,0.0571317,0.463308,3.22168,-0.0458957,-0.0126169,-0.336516,0.177306,0.632642,-2.88978,0.0520049,-0.24653,-0.0308474,-0.158732,0.255941,-0.10306,-0.488798,-0.000909984,0.0136636,0.0133697,0.0182869,0.00254769,0.0130028,0,0,0,0,0,0,0,0,0,-0.000415929,0.00180126,0.000220855,0.00162809,-0.000298971,-0.000543176,-0.000159271,-9.62692e-05,0.000398368,0.000278668,-0.000186727,-0.000961017
591,0.00051179,-0.0307367,-0.0240335,0.000787258,0.112612,0.112612,0.112612,0.112612,0.112612,0.112612,0.112612,0.112612,0.112612,-0.862612,-0.68352,-0.0349436,1.10115,-0.0307367,-0.0240335,0.000787258,0.00900444,0.00727071,0.00818626,-0.000862896,-0.00220288,0.00203022,0.112612,-0.425191,-4.11521,-0.0218706,0.00390848,0.355224,0.480779,3.52304,3.79072,-0.029309,-0.157706,0.0367647,-0.565709,0.177831,0.115204,-2.95812,0.00900444,0.00727071,0.00818626,-0.000862896,-0.00220288,0.00203022,0,0,0,0,0,0,0,0,0,-0.000742711,-0.00170117,1.18464e-05,0.0046047,-0.000383908,-0.000157845,0.000228899,0.000488155,0.000507638,0.000284959,-0.000142537,0.000965928
592,0.00051179,-0.00454767,-0.000713695,-0.00281885,0.0377275,0.0377275,0.0377275,0.0377275,0.0377275,0.0377275,0.0377275,0.0377275,0.0377275,-0.917857,-0.52041,-0.962273,1.42803,-0.00454767,-0.000713695,-0.00281885,-0.00617392,-0.000494014,0.00167332,-0.0119479,0.00082167,-0.000397262,0.0377275,0.00190337,-0.00880084,-0.000545464,0.00251959,0.000594,0.000706326,0.000546141,0.0127545,-0.00136839,-0.00147553,1.50139e-05,0.000207944,-0.000330366,-0.00166364,0.00206476,-0.00617392,-0.000494014,0.00167332,-0.0119479,0.00082167,-0.000397262,0,0,0,0,0,0,0,0,0,-0.000351392,1.31774e-06,0.000220448,-0.000378264,-0.000285352,-0.000230843,-4.39111e-05,-6.93546e-05,0.000322022,0.00040206,7.77214e-05,1.2366e-05
593,0.00051179,0.015056,0.00389186,-0.012344,0.0128514,0.0128514,0.0128514,0.0128514,0.0128514,0.0128514,0.0128514,0.0128514,0.0128514,-0.765275,-0.015433,-0.987149,1.24914,0.015056,0.00389186,-0.012344,-0.0108624,0.00323882,-0.00121064,0.00556181,-0.00184817,-0.00386558,0.0128514,0.000861362,-0.0233914,6.01485e-05,0.000995223,2.0147e-05,0.000478428,-0.00210122,0.00831526,0.00113159,0.000663124,-6.52857e-07,-6.48653e-06,-0.0055502,-0.000123963,0.0144517,-0.0108624,0.00323882,-0.00121064,0.00556181,-0.00184817,-0.00386558,0,0,0,0,0,0,0,0,0,-0.000282325,-4.15855e-05,1.42393e-06,-0.000367239,-0.000305528,3.15658e-05,4.18869e-05,1.74761e-07,0.000387058,0.000359917,-1.8663e-05,-1.15278e-05
594,0.00051179,-0.00134816,-0.00105894,-0.00794999,0.0353727,0.0353727,0.0353727,0.0353727,0.0353727,0.0353727,0.0353727,0.0353727,0.0353727,-0.867324,0.518638,-0.964627,1.39705,-0.00134816,-0.00105894,-0.00794999,-0.00318062,0.00133675,0.000251517,-0.00555689,-0.000172859,-9.2941e-05,0.0353727,0.00158753,-0.00879796,-0.000352792,0.00255557,-0.000357446,0.000721276,0.00113611,0.0105036,-0.000652047,0.00124844,0.000120607,9.80646e-05,-0.00274507,-0.00130146,0.00671581,-0.00318062,0.00133675,0.000251517,-0.00555689,-0.000172859,-9.2941e-05,0,0,0,0,0,0,0,0,0,-0.000342682,2.64579e-06,-0.000195694,-0.000411912,-0.000311518,0.000205534,-2.04334e-05,7.89681e-05,0.00032413,0.00042164,-7.94906e-05,3.63924e-06
595,0.00051179,0.000754041,-0.00504728,0.00431933,0.0454596,0.0454596,0.0454596,0.0454596,0.0454596,0.0454596,0.0454596,0.0454596,0.0454596,-0.95454,0.420546,-0.882248,1.36615,0.000754041,-0.00504728,0.00431933,-0.00257209,-0.00145558,0.00058569,-0.00912432,-0.00316852,0.00165672,0.0454596,0.000458673,-0.00118356,-0.00105032,0.00575222,0.000237514,0.00148086,-0.00654008,0.000192002,-0.00146415,0.00092245,0.000105903,0.000484921,-0.00162739,-0.00167621,0.00173583,-0.00257209,-0.00145558,0.00058569,-0.00912432,-0.00316852,0.00165672,0,0,0,0,0,0,0,0,0,-0.00035537,4.11143e-06,-0.00018995,-0.000360033,-0.000319118,0.000164891,-3.82638e-05,5.65606e-05,0.000297874,0.000380698,-8.71868e-05,1.45811e-05
596,0.00051179,0.00630557,0.0038214,-0.000456695,0.0461578,0.0461578,0.0461578,0.0461578,0.0461578,0.0461578,0.0461578,0.0461578,0.0461578,-0.946593,0.953842,0.928778,1.63355,0.00630557,0.0038214,-0.000456695,0.00171443,-0.00347622,-0.000910044,0.0041908,-0.00115035,0.00769376,0.0461578,0.0014502,-0.00276777,-0.000181787,-0.00232892,-0.00105941,0.000367634,-0.000741178,-0.00247839,-0.000603976,-0.00445508,-0.000528126,-0.00185372,0.0029626,-0.0019693,0.0030516,0.00171443,-0.00347622,-0.000910044,0.0041908,-0.00115035,0.00769376,0,0,0,0,0,0,0,0,0,-0.000553519,1.42784e-06,0.000242007,-0.000490102,-0.000311578,-0.000278587,3.53885e-06,2.99094e-05,0.000258595,0.000484678,-4.66941e-05,1.4227e-05
597,0.00051179,0.0329838,-0.0260674,-0.0130816,0.0923683,0.0923683,0.0923683,0.0923683,0.0923683,0.0923683,0.0923683,0.0923683,0.0923683,-0.907632,-0.487747,0.0487006,1.03154,0.0329838,-0.0260674,-0.0130816,0.00840276,-0.0085335,-0.00422439,0.00743085,-0.00754021,-0.00228983,0.0923683,0.378219,2.63761,-0.0109304,-0.531453,-0.242284,0.229689,1.6176,-2.42831,0.0604476,0.0759394,-0.0456677,-0.30657,0.481581,-0.0847013,-1.29794,0.00840276,-0.0085335,-0.00422439,0.00743085,-0.00754021,-0.00228983,0,0,0,0,0,0,0,0,0,-0.000452317,0.00150906,-0.000211312,0.00219907,-0.00039419,1.66727e-05,-8.46565e-05,-0.000396186,0.000467293,5.55752e-05,-0.000135893,-0.000859005
598,0.00051179,0.00954789,0.0367053,-0.0354055,0.0675533,0.0675533,0.0675533,0.0675533,0.0675533,0.0675533,0.0675533,0.0675533,0.0675533,-0.932447,-0.627525,0.205493,1.14257,0.00954789,0.0367053,-0.0354055,0.0123363,0.00442963,0.0113502,-9.498e-05,0.00923983,-0.00241198,0.0675533,0.367041,1.03678,0.0236667,-0.225971,-0.318664,-0.123523,-1.33123,-0.727666,0.0465654,0.212722,0.00665264,0.172335,-0.0234563,-0.00183515,1.1943,0.0123363,0.00442963,0.0113502,-9.498e-05,0.00923983,-0.00241198,0,0,0,0,0,0,0,0,0,-0.000343941,0.00141042,-0.000426127,-0.000431533,-0.000371838,0.00070709,-0.00025411,0.000117341,0.000324331,-0.000690193,4.15836e-05,-0.000507698
599,0.00051179,-0.000513716,-0.00189617,-0.00299961,0.108856,0.108856,0.108856,0.108856,0.108856,0.108856,0.108856,0.108856,0.108856,-0.88827,0.293919,-0.891144,1.29211,-0.000513716,-0.00189617,-0.00299961,-0.00489314,-0.000838166,0.00152544,-0.00421168,-0.00185283,-0.000693708,0.108856,0.000600353,0.00155522,-0.000722311,0.00350645,9.97168e-05,0.00117845,-0.00371886,-0.00114122,-0.000920491,2.91198e-05,-2.73241e-05,0.0002635,-0.00163939,-0.000946946,0.00645497,-0.00489314,-0.000838166,0.00152544,-0.00421168,-0.00185283,-0.000693708,0,0,0,0,0,0,0,0,0,-0.000331476,-8.69592e-06,-0.000138106,-0.000336936,-0.00030678,0.000122502,-1.28928e-05,4.13993e-05,0.000331432,0.000363975,-6.02008e-05,4.56474e-06
600,0.00051179,-0.0105107,-0.00842488,0.0248246,0.0293816,0.0293816,0.0293816,0.0293816,0.0293816,0.0293816,0.0293816,0.0293816,0.0293816,-0.970618,-0.881883,-0.0649287,1.31302,-0.0105107,-0.00842488,0.0248246,0.0216843,0.00639283,0.00166419,-0.0144671,4.84735e-05,-0.0119489,0.0293816,-0.226852,-1.79421,-0.0520859,-0.296124,-0.127684,0.360175,0.729773,1.9324,0.00389705,0.0277677,0.0399205,0.0834633,0.276781,0.0891686,-0.838061,0.0216843,0.00639283,0.00166419,-0.0144671,4.84735e-05,-0.0119489,0,0,0,0,0,0,0,0,0,-0.000681877,-0.00086601,0.00024956,0.00197145,-0.000383431,-0.000706491,0.000106978,2.88388e-06,0.000352301,0.00164694,0.000396806,0.000545927
601,0.00051179,0.0115624,-0.0257105,-0.0117407,0.00772089,0.00772089,0.00772089,0.00772089,0.00772089,0.00772089,0.00772089,0.00772089,0.00772089,-0.96817,-0.992279,0.567284,1.49793,0.0115624,-0.0257105,-0.0117407,-0.00858724,0.00346572,-0.0103868,-0.00764558,0.00347674,0.0228046,0.00772089,-0.00349276,0.0336711,0.000894792,-0.00415675,0.0169972,0.00188851,0.00157565,-0.0622307,0.00101985,0.0252045,0.00062026,-0.0241814,0.00466275,-0.00256182,0.0343465,-0.00858724,0.00346572,-0.0103868,-0.00764558,0.00347674,0.0228046,0,0,0,0,0,0,0,0,0,-0.00030534,-6.21735e-05,-0.000554351,-0.000616752,-0.000380153,0.000597956,-3.49021e-05,2.55693e-05,0.000272267,0.000531769,1.54007e-05,9.94402e-05
602,0.00051179,0.00150568,-0.00395451,0.0022072,0.091206,0.091206,0.091206,0.091206,0.091206,0.091206,0.091206,0.091206,0.091206,-0.908794,-0.587542,-0.804652,1.34855,0.00150568,-0.00395451,0.0022072,-0.00481218,0.00351604,0.00173437,-0.00494488,0.000792779,0.000739474,0.091206,-0.000553951,0.0101168,-0.00116619,0.00725542,-0.000504829,0.000254244,-0.00463889,-0.0111176,-0.00139716,0.00101652,-9.80031e-05,-0.00161895,-0.00431743,-0.000987358,0.00405064,-0.00481218,0.00351604,0.00173437,-0.00494488,0.000792779,0.000739474,0,0,0,0,0,0,0,0,0,-0.000428535,-1.30352e-05,0.000294756,-0.000388935,-0.000297362,-0.000271258,-1.79148e-05,-8.01458e-05,0.000322089,0.000408822,8.70935e-05,1.2556e-05
603,0.00051179,-0.0169574,0.00277116,-0.041162,0.111799,0.111799,0.111799,0.111799,0.111799,0.111799,0.111799,0.111799,0.111799,-0.861799,0.725921,-0.210703,1.14632,-0.0169574,0.00277116,-0.041162,-0.010912,0.00876971,0.00962293,0.00929414,-0.00743819,-0.0104332,0.111799,-0.32643,0.984361,0.0337385,-0.0187424,0.332917,-0.205314,-1.4201,-1.30032,-0.00907149,0.106569,0.0295746,0.315327,-0.0905976,-0.0768954,1.14593,-0.010912,0.00876971,0.00962293,0.00929414,-0.00743819,-0.0104332,0,0,0,0,0,0,0,0,0,-0.000888504,-0.00119696,-0.000331637,-0.00175728,-0.000187898,0.000756719,0.000490861,8.71746e-05,0.000266358,-0.000199631,0.000134189,5.31051e-05
604,0.00051179,-0.0110705,-0.00824763,0.00259602,0.0606281,0.0606281,0.0606281,0.0606281,0.0606281,0.0606281,0.0606281,0.0606281,0.0606281,-0.939372,-0.164845,0.0246432,0.954044,-0.0110705,-0.00824763,0.00259602,0.0106571,-0.0040087,-0.0145294,-0.00306642,-0.00537444,0.0040295,0.0606281,0.0440188,0.235273,0.00295646,-0.216363,0.0411268,0.103134,0.411063,-0.265329,0.0394959,0.0111817,-0.0532853,0.203685,0.213429,-0.0314514,-0.617344,0.0106571,-0.0040087,-0.0145294,-0.00306642,-0.00537444,0.0040295,0,0,0,0,0,0,0,0,0,-0.000537224,0.000199898,-1.34137e-05,0.000467897,-0.000364656,2.89128e-06,0.000108667,-0.000356801,0.000390589,0.000418146,-0.000229797,-0.00021059
605,0.00051179,0.0308285,-0.0259826,-0.0310844,0.0639091,0.0639091,0.0639091,0.0639091,0.0639091,0.0639091,0.0639091,0.0639091,0.0639091,-0.813909,-0.227308,0.0695013,0.847908,0.0308285,-0.0259826,-0.0310844,0.0107042,0.00523722,0.0110527,-0.000133365,-0.0107481,-0.00166669,0.0639091,0.391409,3.13119,-0.144475,-1.79687,0.559006,0.118036,0.0483317,-3.72102,0.160233,-0.18813,-0.056492,0.134053,2.01098,-0.0965159,-0.1513,0.0107042,0.00523722,0.0110527,-0.000133365,-0.0107481,-0.00166669,0,0,0,0,0,0,0,0,0,-0.000384547,0.00147515,-0.000780483,0.00173397,-0.000430638,-0.000611895,0.000265078,-0.000662602,0.000392191,-0.00044308,-9.79873e-06,-0.00102633
606,0.00051179,0.00894196,-0.0184479,-0.0154139,0.101396,0.101396,0.101396,0.101396,0.101396,0.101396,0.101396,0.101396,0.101396,-0.898604,-0.0524969,-0.237958,0.931058,0.00894196,-0.0184479,-0.0154139,-0.00585864,0.00407305,-0.00358589,0.00159136,0.00246446,-0.000695713,0.101396,-0.063298,0.24789,0.0023929,-0.0250686,-0.126596,-0.0398638,-0.212308,-0.130235,-0.050692,0.0331706,-0.00231882,-0.0962907,0.0103459,-0.00568336,0.324012,-0.00585864,0.00407305,-0.00358589,0.00159136,0.00246446,-0.000695713,0,0,0,0,0,0,0,0,0,-0.000554182,-0.000201972,6.38107e-05,-0.000540114,-0.000319893,8.48757e-07,-0.000101692,1.63144e-05,0.000335008,0.000105617,-1.48581e-05,0.000111916
607,0.00051179,0.00556695,0.0150967,-0.0195833,0.0522931,0.0522931,0.0522931,0.0522931,0.0522931,0.0522931,0.0522931,0.0522931,0.0522931,-0.947707,0.0650999,0.215319,0.974037,0.00556695,0.0150967,-0.0195833,0.00832316,-0.0057972,-0.0045838,-0.0108905,0.0049838,0.00271442,0.0522931,0.0667726,0.162264,0.0206432,-0.00625633,0.130593,-0.0141147,-0.281254,-0.298424,0.0869214,-0.0152914,-0.0112123,-0.0900199,0.00645098,-0.0246688,0.390857,0.00832316,-0.0057972,-0.0045838,-0.0108905,0.0049838,0.00271442,0,0,0,0,0,0,0,0,0,-0.000517897,0.000226434,6.34705e-05,-0.000226519,-0.000334376,8.49899e-05,0.000231109,-4.45237e-05,0.000307508,3.95347e-05,-1.77613e-05,-0.000258817
608,0.00051179,-0.16452,-0.0132008,-0.0772014,0.0328519,0.0328519,0.0328519,0.0328519,0.0328519,0.0328519,0.0328519,0.0328519,0.0328519,-0.782852,0.864146,-0.078463,1.16866,-0.16452,-0.0132008,-0.0772014,0.0786196,-0.0166971,0.00211458,-0.0585898,-0.00142549,-0.0286778,0.0328519,-1.62452,-19.1874,0.283779,2.94234,0.305374,0.423044,-1.27667,19.0465,-0.0404484,0.683511,-0.0290633,0.258385,-3.61266,0.383678,1.09549,0.0786196,-0.0166971,0.00211458,-0.0585898,-0.00142549,-0.0286778,0,0,0,0,0,0,0,0,0,-0.00127023,-0.00624113,0.000415675,0.00437049,-2.61609e-05,0.00225514,0.000993203,-0.00212846,0.000522748,-0.000118902,0.00182357,0.0032634
609,0.00051179,0.00528216,-0.032391,0.0229339,0.0572747,0.0572747,0.0572747,0.0572747,0.0572747,0.0572747,0.0572747,0.0572747,0.0572747,-0.807275,0.386134,-0.179974,0.912788,0.00528216,-0.032391,0.0229339,-0.0119747,-0.00748203,-0.00812235,-0.0197925,-0.0206808,0.0170091,0.0572747,-0.375492,3.06211,-0.0860826,0.663391,0.105115,-0.313599,-0.812076,-3.17251,-0.0900078,0.282381,-0.0863219,0.0892357,-0.913382,-0.254518,0.699906,-0.0119747,-0.00748203,-0.00812235,-0.0197925,-0.0206808,0.0170091,0,0,0,0,0,0,0,0,0,-0.000844479,-0.00108952,-0.000947386,-0.00295426,-0.000347966,1.17393e-05,0.000298816,-0.000794929,0.000267319,-0.00026295,-0.000275098,-0.000339725
610,0.00051179,0.0635537,-0.00667798,-0.0352398,0.0209088,0.0209088,0.0209088,0.0209088,0.0209088,0.0209088,0.0209088,0.0209088,0.0209088,-0.972674,0.979091,0.333326,1.4198,0.0635537,-0.00667798,-0.0352398,-0.00914598,-0.0109543,-0.0496326,-0.012227,-0.0246533,0.0134268,0.0209088,-0.0415009,0.339275,-0.00475084,0.00407137,0.207437,0.0599249,-0.0487925,-0.610265,0.00318716,0.0133631,0.0048651,-0.12646,-0.0107565,-0.0194178,0.210493,-0.00914598,-0.0109543,-0.0496326,-0.012227,-0.0246533,0.0134268,0,0,0,0,0,0,0,0,0,-0.000176452,-0.000177452,0.000940479,-0.000758889,-0.00030365,-0.00109753,3.05828e-05,3.07484e-05,0.000205331,0.000861812,-0.000228631,4.58268e-05
611,0.00051179,0.00918679,0.000532839,-0.00610455,0.114593,0.114593,0.114593,0.114593,0.114593,0.114593,0.114593,0.114593,0.114593,-0.864593,0.000821111,0.389331,0.948209,0.00918679,0.000532839,-0.00610455,-0.000405606,0.00174566,-0.00116423,0.00251933,-0.000844245,-1.1669e-05,0.114593,0.00463612,-0.0929788,0.000497527,-0.0192897,0.0059271,-0.0112539,0.0942164,0.0778649,0.0192659,-0.0118598,0.000497115,-0.0225526,0.0306167,0.0128484,-0.0655592,-0.000405606,0.00174566,-0.00116423,0.00251933,-0.000844245,-1.1669e-05,0,0,0,0,0,0,0,0,0,-0.000577681,-2.36772e-05,1.29148e-05,-0.000325875,-0.000343466,9.51709e-06,6.40965e-05,3.14414e-05,0.000312015,0.000201694,-3.49127e-05,1.93539e-05
612,0.00051179,-0.00359356,0.00838625,-0.00912541,0.0550534,0.0550534,0.0550534,0.0550534,0.0550534,0.0550534,0.0550534,0.0550534,0.0550534,-0.805053,0.0757188,0.0522666,0.810294,-0.00359356,0.00838625,-0.00912541,-0.0094448,-0.0109061,-0.0122015,0.00739631,0.00869445,-0.00213431,0.0550534,0.153142,1.05997,0.0607378,0.635591,0.612257,0.118379,0.220604,-1.66863,0.115824,0.0453399,0.0219267,0.406864,-0.689317,-0.0651082,-0.618343,-0.0094448,-0.0109061,-0.0122015,0.00739631,0.00869445,-0.00213431,0,0,0,0,0,0,0,0,0,-0.000480585,0.000488089,0.000241929,0.00114314,-0.000310833,0.000256388,0.00038571,0.000349468,0.000391193,-8.13589e-05,-4.32565e-05,-0.000566607
613,0.00051179,-0.0567725,-0.00678232,0.0497684,0.0110156,0.0110156,0.0110156,0.0110156,0.0110156,0.0110156,0.0110156,0.0110156,0.0110156,-0.761016,0.834134,0.00720444,1.12915,-0.0567725,-0.00678232,0.0497684,-0.0193944,0.00671755,-0.124984,-0.0126007,-0.0162754,-0.0308911,0.0110156,0.202067,2.10373,-0.0532174,-0.297046,-0.112579,1.26893,4.42877,-1.93437,0.0150537,-0.120001,-0.173687,-0.235193,0.423829,-0.0338758,-4.24335,-0.0193944,0.00671755,-0.124984,-0.0126007,-0.0162754,-0.0308911,0,0,0,0,0,0,0,0,0,-0.000492811,0.000774488,-9.65618e-05,0.0135319,-0.000334317,-0.000368436,-0.000126611,-0.00415958,0.000587121,-0.0020925,0.00225996,-0.00046271
614,0.00051179,0.0169266,0.0782347,-0.00398684,0.029429,0.029429,0.029429,0.029429,0.029429,0.029429,0.029429,0.029429,0.029429,-0.779429,0.908403,0.238172,1.22042,0.0169266,0.0782347,-0.00398684,0.0369671,-0.0266357,0.0267625,-0.0310598,0.0943977,-0.0450392,0.029429,0.00919934,-0.501312,-0.0103828,0.452268,0.0460175,-0.0062739,0.342422,0.438368,-0.0185384,0.241132,0.0535679,-0.319474,-0.771635,-0.0418231,-0.0189614,0.0369671,-0.0266357,0.0267625,-0.0310598,0.0943977,-0.0450392,0,0,0,0,0,0,0,0,0,-0.000140123,0.000335018,0.000558674,-0.00139655,-0.000525558,-0.000928858,-0.000143806,0.000961175,0.000388667,0.00160144,0.000518481,-0.000330126
615,0.00051179,-0.0300794,0.0257461,-0.0124363,0.0922464,0.0922464,0.0922464,0.0922464,0.0922464,0.0922464,0.0922464,0.0922464,0.0922464,-0.842246,-0.474209,0.210081,0.989134,-0.0300794,0.0257461,-0.0124363,-0.000466157,-0.00985903,0.00719864,0.0106599,-0.00308299,-0.00331605,0.0922464,0.291357,-2.31268,-0.0242283,0.186731,-0.146254,-0.236663,-0.353761,2.48901,0.0392848,0.183614,0.0523789,0.168348,-0.396091,0.142491,0.197849,-0.000466157,-0.00985903,0.00719864,0.0106599,-0.00308299,-0.00331605,0,0,0,0,0,0,0,0,0,-0.000309587,0.000900596,-0.000631552,-0.00195325,-0.000376249,0.000290679,-0.000304134,0.000367113,0.000273414,-0.000341392,0.000125847,0.000142016
616,0.00051179,0.0151118,-0.00755081,0.0177553,0.0500622,0.0500622,0.0500622,0.0500622,0.0500622,0.0500622,0.0500622,0.0500622,0.0500622,-0.800062,0.423563,0.263996,0.942974,0.0151118,-0.00755081,0.0177553,0.00526971,-0.0011294,-0.0294033,0.00497202,-0.0284636,0.00977473,0.0500622,0.0232978,-1.03253,0.00418396,-0.151264,-0.0238863,-0.05028,1.37792,1.0413,-0.0178202,-0.190329,-0.0238338,0.0795409,0.349144,0.0973946,-1.47521,0.00526971,-0.0011294,-0.0294033,0.00497202,-0.0284636,0.00977473,0,0,0,0,0,0,0,0,0,-0.000410371,1.04301e-06,0.000482821,-0.00136473,-0.00033229,-0.000452275,-0.000206036,-0.000394647,0.000280067,0.000567894,-0.000128326,0.000394052
617,0.00051179,-0.01131,-0.000538415,0.00533724,0.0243614,0.0243614,0.0243614,0.0243614,0.0243614,0.0243614,0.0243614,0.0243614,0.0243614,-0.975639,-0.0874563,-0.97258,1.38037,-0.01131,-0.000538415,0.00533724,-0.00428136,-7.43121e-05,0.00344591,-0.0143989,-0.00175813,0.0039173,0.0243614,0.00244685,-0.0058851,-0.000503831,0.00456481,0.000190661,0.000680238,-0.000698736,0.0170045,-0.00209964,0.000323223,0.000121944,0.000296339,-0.00434962,-0.00175918,-0.00493484,-0.00428136,-7.43121e-05,0.00344591,-0.0143989,-0.00175813,0.0039173,0,0,0,0,0,0,0,0,0,-0.000285931,9.4908e-06,4.67903e-05,-0.000320723,-0.000297869,-5.25717e-05,-6.38293e-05,-4.193e-06,0.0003132,0.000361984,-1.21689e-05,2.9454e-05
618,0.00051179,-0.0255572,-0.0112937,-0.0305411,0.0480553,0.0480553,0.0480553,0.0480553,0.0480553,0.0480553,0.0480553,0.0480553,0.0480553,-0.951945,0.659308,-0.211588,1.17714,-0.0255572,-0.0112937,-0.0305411,-0.00320221,0.00107761,0.0270823,-0.0138388,-0.0150728,0.000556305,0.0480553,-0.348183,-0.670047,0.00937504,0.00821692,0.357444,-0.11743,-0.994481,0.33816,-0.03756,0.124888,-0.00569564,0.136675,-0.121811,0.00706111,0.888347,-0.00320221,0.00107761,0.0270823,-0.0138388,-0.0150728,0.000556305,0,0,0,0,0,0,0,0,0,-0.000739649,-0.00130097,-0.00049221,-0.000464317,-0.000271762,0.000596736,0.000198968,-3.15189e-05,0.000304192,-0.000439159,-0.000176166,0.000494049
619,0.00051179,0.0248334,0.00519514,0.122138,0.0181476,0.0181476,0.0181476,0.0181476,0.0181476,0.0181476,0.0181476,0.0181476,0.0181476,-0.768148,-0.660862,0.211424,1.03513,0.0248334,0.00519514,0.122138,-0.0837036,0.0153794,-0.0854387,-0.0245322,0.0213182,0.0474254,0.0181476,0.0266294,-2.77834,0.0107303,-0.544956,-0.0540616,-0.0637927,4.63333,2.80757,-0.0761811,-0.0297333,-0.0386409,0.332685,0.569494,0.215291,-5.08815,-0.0837036,0.0153794,-0.0854387,-0.0245322,0.0213182,0.0474254,0,0,0,0,0,0,0,0,0,-0.000185244,-0.000406443,-0.000412885,-0.00316278,-0.000244463,0.000673982,-0.000624638,1.43929e-05,0.000305995,0.00167047,-0.000187621,0.00119251
620,0.00051179,-0.00149274,0.0175836,-0.00561661,0.0514027,0.0514027,0.0514027,0.0514027,0.0514027,0.0514027,0.0514027,0.0514027,0.0514027,-0.948597,0.197682,0.0256695,0.969316,-0.00149274,0.0175836,-0.00561661,0.0107323,-0.000352263,-0.0144326,0.00241523,0.00712315,0.00177608,0.0514027,0.0512906,0.260141,0.00838739,0.18395,0.00178224,0.106143,0.46762,-0.260431,0.0425378,-0.00388623,0.0336042,0.176437,-0.197648,-0.0282075,-0.63844,0.0107323,-0.000352263,-0.0144326,0.00241523,0.00712315,0.00177608,0,0,0,0,0,0,0,0,0,-0.000538789,0.000217179,2.67344e-07,0.000505556,-0.000314856,8.0084e-05,0.000131829,0.000201482,0.000382118,0.000411551,0.000205791,-0.000225093
621,0.00051179,0.00148591,-0.00398934,-0.00316435,0.0725887,0.0725887,0.0725887,0.0725887,0.0725887,0.0725887,0.0725887,0.0725887,0.0725887,-0.822589,0.883129,0.687749,1.38909,0.00148591,-0.00398934,-0.00316435,0.00394454,-0.000266585,-0.00048995,0.00160414,0.00700107,0.00337372,0.0725887,0.000429288,-0.00259541,0.000463851,0.000863249,-0.00196722,0.000315864,0.00442529,0.00307672,-5.89062e-05,0.00623271,-0.000704034,-6.91624e-05,-0.00310661,-0.00110193,-0.00119178,0.00394454,-0.000266585,-0.00048995,0.00160414,0.00700107,0.00337372,0,0,0,0,0,0,0,0,0,-0.000455581,1.24182e-05,0.000372119,-0.000481993,-0.000361795,-0.000370146,-1.72481e-06,9.72993e-05,0.00031814,0.000480253,-3.4329e-05,1.90795e-06
622,0.00051179,0.0215852,0.00531851,-0.0165186,0.116655,0.116655,0.116655,0.116655,0.116655,0.116655,0.116655,0.116655,0.116655,-0.883345,-0.592833,0.184246,1.07967,0.0215852,0.00531851,-0.0165186,0.00444191,0.00459052,0.0119676,-0.00506312,-0.00229634,0.00141782,0.116655,0.505198,1.27617,0.00371707,-0.212493,-0.435034,-0.202348,-2.37793,-0.862718,0.0580704,0.234961,0.0212606,0.255339,-0.0277868,0.0113455,2.13911,0.00444191,0.00459052,0.0119676,-0.00506312,-0.00229634,0.00141782,0,0,0,0,0,0,0,0,0,-0.000262685,0.00188427,-0.000437559,-0.00106849,-0.000356162,0.000520635,-0.000398899,0.00019474,0.000299267,-0.000835311,-5.09715e-06,-0.000600119
623,0.00051179,0.00456487,-0.00958484,0.000187868,0.0554284,0.0554284,0.0554284,0.0554284,0.0554284,0.0554284,0.0554284,0.0554284,0.0554284,-0.805428,-0.768982,-0.683629,1.30667,0.00456487,-0.00958484,0.000187868,-0.00357814,0.00161098,0.0025799,0.000126474,-0.00794119,0.00375129,0.0554284,0.00143243,-0.00387705,-0.000712328,0.00697381,-0.000201616,5.39683e-05,0.00122259,-0.000486205,0.00266419,0.0146605,-0.00147512,-0.00119417,-0.0120495,0.00157727,-0.000216284,-0.00357814,0.00161098,0.0025799,0.000126474,-0.00794119,0.00375129,0,0,0,0,0,0,0,0,0,-0.000543699,-1.76211e-05,0.000386617,-0.000468579,-0.000344956,-0.000377631,7.0608e-06,-0.000175827,0.000354558,0.000494918,8.16633e-05,1.97503e-05
624,0.00051179,0.0623093,0.0483711,0.0598102,0.0610705,0.0610705,0.0610705,0.0610705,0.0610705,0.0610705,0.0610705,0.0610705,0.0610705,-0.811071,-0.773751,0.0630655,1.12272,0.0623093,0.0483711,0.0598102,0.000355303,-0.00799713,0.00691603,0.0184295,-0.00381449,0.0065183,0.0610705,1.10433,12.1586,0.130597,1.04206,-0.817307,0.532709,1.97186,-11.4036,0.0532025,0.501709,0.0712543,-0.158845,-1.59214,-0.295806,-1.87283,0.000355303,-0.00799713,0.00691603,0.0184295,-0.00381449,0.0065183,0,0,0,0,0,0,0,0,0,-8.60095e-05,0.00449993,0.000224393,0.00579134,-0.000254238,0.00100161,-0.000665335,0.001483,0.000495091,-0.000395086,-0.000808598,-0.00246993
625,0.00051179,-0.0232497,-0.0127369,0.010673,0.103157,0.103157,0.103157,0.103157,0.103157,0.103157,0.103157,0.103157,0.103157,-0.896843,-0.154756,0.0943033,0.91497,-0.0232497,-0.0127369,0.010673,0.0132147,0.00014551,-0.00348442,0.00295964,-0.00604364,0.00879213,0.103157,0.187273,1.054,-0.0450219,-0.596856,0.303466,0.0524549,-0.068908,-1.33422,0.102673,-0.068515,-0.0263544,0.0756042,0.678108,-0.0719696,-0.0173692,0.0132147,0.00014551,-0.00348442,0.00295964,-0.00604364,0.00879213,0,0,0,0,0,0,0,0,0,-0.000486575,0.00072212,-0.000256902,0.000361745,-0.0003896,-0.000191861,0.000247845,-0.000207417,0.000372551,0.00012796,-0.000116563,-0.000596206
626,0.00051179,0.00702536,-0.0123346,0.0461195,0.0553396,0.0553396,0.0553396,0.0553396,0.0553396,0.0553396,0.0553396,0.0553396,0.0553396,-0.94466,-0.233799,-0.105615,0.978877,0.00702536,-0.0123346,0.0461195,-0.00691651,-0.0228996,-0.00759354,0.00495356,-0.00737555,-0.0107072,0.0553396,-0.188466,-1.12567,0.0729967,0.468395,-0.185273,0.0291597,0.00254778,1.30391,-0.0579021,0.0857407,-0.0376303,0.0635289,-0.541801,0.0473944,-0.112196,-0.00691651,-0.0228996,-0.00759354,0.00495356,-0.00737555,-0.0107072,0,0,0,0,0,0,0,0,0,-0.000608146,-0.000732707,0.000274189,8.80643e-05,-0.000323826,0.000226782,-2.05388e-05,-0.000265643,0.000385411,0.000127598,-0.000184416,0.00042764
627,0.00051179,0.00169083,-0.00312746,0.00608371,0.0772761,0.0772761,0.0772761,0.0772761,0.0772761,0.0772761,0.0772761,0.0772761,0.0772761,-0.849526,0.0877569,0.922724,1.2573,0.00169083,-0.00312746,0.00608371,-0.000704471,-0.00147813,-0.0011683,-0.00136444,0.000700637,0.00580922,0.0772761,0.00107272,-0.00307181,-0.000160836,-0.00108431,7.27842e-05,0.000397675,0.00189096,0.00130819,-0.000562178,-0.000364484,-0.000214166,-0.000336262,0.00457626,-0.000848822,-0.0076384,-0.000704471,-0.00147813,-0.0011683,-0.00136444,0.000700637,0.00580922,0,0,0,0,0,0,0,0,0,-0.000700638,-2.08417e-06,2.105e-05,-0.000262004,-0.000335569,-3.74397e-05,-1.35585e-05,2.32273e-05,0.000326931,0.000254298,-1.83626e-05,2.08765e-05
628,0.00051179,0.00385292,0.0191779,0.00436246,0.0404675,0.0404675,0.0404675,0.0404675,0.0404675,0.0404675,0.0404675,0.0404675,0.0404675,-0.790468,0.17421,-0.636094,1.02947,0.00385292,0.0191779,0.00436246,-0.00932486,0.00153785,0.00177541,0.00629719,0.000164634,-0.000389774,0.0404675,0.000706926,-0.00117453,-0.000854783,0.012792,0.000384894,-0.000560392,0.0194575,-0.00306329,0.0136811,-0.0142694,-0.00300522,0.00300613,-0.0177005,-0.000201304,-0.0268261,-0.00932486,0.00153785,0.00177541,0.00629719,0.000164634,-0.000389774,0,0,0,0,0,0,0,0,0,-0.000403203,-5.55158e-05,-0.000107693,-0.000317703,-0.000291759,0.000114524,8.74655e-05,5.86361e-06,0.000368699,0.000329854,-3.42694e-05,-1.53815e-05
629,0.00051179,-0.0065072,0.00507824,0.00790739,0.122373,0.122373,0.122373,0.122373,0.122373,0.122373,0.122373,0.122373,0.122373,-0.872373,-0.438966,0.467239,1.08261,-0.0065072,0.00507824,0.00790739,-0.00502933,0.00257763,0.00070817,-0.00720242,0.00305397,0.00654952,0.122373,0.0049444,-0.0911354,-0.000449054,0.00854595,-0.00575793,-0.0095757,0.102981,0.1034,0.00114216,0.0293449,0.00200427,0.0096127,-0.0429691,0.0127928,-0.120501,-0.00502933,0.00257763,0.00070817,-0.00720242,0.00305397,0.00654952,0,0,0,0,0,0,0,0,0,-0.000529416,-1.56521e-05,-0.000323641,-0.000277084,-0.000341499,0.000344927,-4.55288e-05,5.95267e-05,0.000320144,0.000188409,-8.94433e-06,8.14843e-05
630,0.00051179,0.0143794,-0.00813852,0.00436735,0.0239362,0.0239362,0.0239362,0.0239362,0.0239362,0.0239362,0.0239362,0.0239362,0.0239362,-0.976064,-0.571689,0.0765958,1.13375,0.0143794,-0.00813852,0.00436735,-0.00410897,-0.0173731,0.00584749,0.0270529,-0.0140239,0.0347288,0.0239362,0.362283,2.06822,0.0303058,-0.203532,-0.210995,0.125688,0.683946,-1.8716,0.0601747,0.116088,-0.00390893,-0.217399,0.095582,-0.0584451,-0.470914,-0.00410897,-0.0173731,0.00584749,0.0270529,-0.0140239,0.0347288,0,0,0,0,0,0,0,0,0,-0.000493191,0.00130431,-0.000209751,0.00106732,-0.000406915,0.000339078,-5.04227e-05,-0.000243556,0.000438765,0.000248035,6.42273e-05,-0.000605142
631,0.00051179,-0.0447115,0.00358899,-0.00802088,0.0807753,0.0807753,0.0807753,0.0807753,0.0807753,0.0807753,0.0807753,0.0807753,0.0807753,-0.830775,0.849211,-0.0014449,1.188,-0.0447115,0.00358899,-0.00802088,-0.00209281,0.000727666,-0.00316815,-0.0105386,-0.00993916,-0.0145938,0.0807753,-0.043358,-0.435919,-0.00639861,-0.06414,-0.0346859,0.864159,5.9306,0.515317,0.00878958,-0.0301262,-0.131739,0.0876864,0.0906772,0.00864137,-6.01026,-0.00209281,0.000727666,-0.00316815,-0.0105386,-0.00993916,-0.0145938,0,0,0,0,0,0,0,0,0,-0.000594907,-0.000165924,-1.23771e-05,0.0070465,-0.000289882,-4.43323e-05,5.25843e-05,-0.00241375,0.000592336,0.0015634,0.000996964,3.15674e-05
632,0.00051179,0.0164406,-0.0158753,-0.00337631,0.00978232,0.00978232,0.00978232,0.00978232,0.00978232,0.00978232,0.00978232,0.00978232,0.00978232,-0.967759,-0.990218,0.505038,1.47382,0.0164406,-0.0158753,-0.00337631,-0.0106064,0.00203528,-0.0172974,-0.0140266,0.0079949,0.0262745,0.00978232,-0.010628,0.0593614,0.00166047,-0.0247466,0.048187,0.0074503,0.0200294,-0.123989,0.00192891,0.0335241,0.000175642,-0.0517167,0.00709784,-0.00477868,0.0350637,-0.0106064,0.00203528,-0.0172974,-0.0140266,0.0079949,0.0262745,0,0,0,0,0,0,0,0,0,-0.000266857,-9.2515e-05,-0.000634468,-0.000662479,-0.000381256,0.000671425,-4.68313e-05,1.40526e-05,0.000265688,0.000564008,6.76528e-05,0.000121136
633,0.00051179,-0.0224628,-0.000241458,0.0168576,0.0315224,0.0315224,0.0315224,0.0315224,0.0315224,0.0315224,0.0315224,0.0315224,0.0315224,-0.968478,-0.751541,-0.162232,1.23656,-0.0224628,-0.000241458,0.0168576,0.030346,0.00883829,0.0317093,-0.0145063,0.0160581,0.000233695,0.0315224,-0.376548,-2.07529,-0.0790375,-0.131788,0.238138,0.00768521,-0.810529,1.85962,-0.0240704,-0.177081,0.00220654,-0.0025006,0.309111,0.0555309,0.796172,0.030346,0.00883829,0.0317093,-0.0145063,0.0160581,0.000233695,0,0,0,0,0,0,0,0,0,-0.000748113,-0.00135138,0.000387331,0.00027036,-0.00035047,-0.00108932,0.000186749,-0.000167677,0.000341877,0.000123585,0.000350324,0.000658455
634,0.00051179,0.705681,0.433605,-0.289084,0.0104896,0.0104896,0.0104896,0.0104896,0.0104896,0.0104896,0.0104896,0.0104896,0.0104896,-0.689673,-0.714428,0.0895104,0.997029,0.705681,0.433605,-0.289084,-0.323473,-0.115535,-0.576336,0.287419,0.0603153,-0.0810668,0.0104896,6.21612,67.3166,0.180667,-0.798867,-4.31217,-0.718244,5.00451,-63.7101,0.943448,2.61946,-0.0490138,0.265847,-2.2542,0.699,-4.98127,-0.323473,-0.115535,-0.576336,0.287419,0.0603153,-0.0810668,0,0,0,0,0,0,0,0,0,0.0013221,0.0205308,0.000117612,0.00731108,-0.000205064,0.000533708,-0.00277811,0.00184019,-0.000405632,-0.0202569,-0.00172717,-0.00584278
635,0.00051179,0.00591747,0.0013947,-0.0110134,0.0126693,0.0126693,0.0126693,0.0126693,0.0126693,0.0126693,0.0126693,0.0126693,0.0126693,-0.902798,-0.876305,-0.987331,1.5993,0.00591747,0.0013947,-0.0110134,-0.00489554,0.00216758,0.00228528,-0.00494243,0.000367577,0.00321408,0.0126693,0.00233741,-0.0208704,-0.000584535,0.00228323,-0.000719701,9.68203e-06,0.00524507,0.0156726,-0.000645341,-0.00239224,-0.000164265,0.000774892,-0.00128569,-0.00146076,0.00499348,-0.00489554,0.00216758,0.00228528,-0.00494243,0.000367577,0.00321408,0,0,0,0,0,0,0,0,0,-0.0004334,-5.41458e-06,0.000271879,-0.000488213,-0.000272566,-0.000256049,-2.05628e-05,-0.000127424,0.000288807,0.000511163,0.000129457,1.61427e-05
636,0.00051179,0.029208,0.012701,0.00764453,0.105085,0.105085,0.105085,0.105085,0.105085,0.105085,0.105085,0.105085,0.105085,-0.855085,0.218817,0.177124,0.900236,0.029208,0.012701,0.00764453,0.0132818,0.00377187,-0.00388805,0.00793209,0.0066501,0.00749269,0.105085,0.202613,0.203143,0.0660704,0.0580285,0.186277,-0.0924086,-1.12604,-0.418629,0.108487,-0.0589864,-0.0545871,-0.166741,-0.0117431,-0.00241809,1.28514,0.0132818,0.00377187,-0.00388805,0.00793209,0.0066501,0.00749269,0,0,0,0,0,0,0,0,0,-0.000427984,0.000690179,0.000506807,-0.000731875,-0.000279481,0.000191616,0.000192802,-0.000338606,0.000304185,-0.000231091,-0.000140765,-0.000363921
637,0.00051179,-0.000306004,0.00567247,-0.00555685,0.106881,0.106881,0.106881,0.106881,0.106881,0.106881,0.106881,0.106881,0.106881,-0.856881,0.144192,-0.642535,1.08069,-0.000306004,0.00567247,-0.00555685,-0.00567264,0.000125262,0.00214595,0.0016227,-0.00170856,-0.00308213,0.106881,0.000188187,0.0146583,-0.0017783,0.0159896,0.00074168,-0.00197595,0.0203856,-0.015094,0.00790341,-0.00180331,-0.00266155,0.00433893,-0.0198588,-0.000463199,-0.0191676,-0.00567264,0.000125262,0.00214595,0.0016227,-0.00170856,-0.00308213,0,0,0,0,0,0,0,0,0,-0.00039544,-2.79949e-05,-9.1284e-05,-0.000311426,-0.000300342,7.47536e-05,4.70579e-05,-5.36363e-06,0.000348195,0.000313126,-3.83375e-05,-1.82993e-05
638,0.00051179,0.0233006,0.00601809,-0.00509876,0.0541205,0.0541205,0.0541205,0.0541205,0.0541205,0.0541205,0.0541205,0.0541205,0.0541205,-0.945879,-0.449355,0.338349,1.10049,0.0233006,0.00601809,-0.00509876,0.0024662,0.00246606,0.00324135,0.00344069,0.000709264,-0.00923696,0.0541205,0.0779994,-0.542288,-0.00352781,0.00126658,-0.0416951,-0.0609732,0.0351219,0.560683,0.0225631,0.124817,0.0180956,0.0513595,-0.132101,0.03372,-0.0813826,0.0024662,0.00246606,0.00324135,0.00344069,0.000709264,-0.00923696,0,0,0,0,0,0,0,0,0,-0.000489645,0.000251229,-0.000339929,-0.000364313,-0.000382269,0.000329311,-2.10801e-05,0.000194137,0.000310011,-0.000213005,-6.08792e-06,-2.86839e-05
639,0.00051179,0.0103485,0.00156788,-0.00802175,0.0146221,0.0146221,0.0146221,0.0146221,0.0146221,0.0146221,0.0146221,0.0146221,0.0146221,-0.764622,0.741951,-0.877967,1.38057,0.0103485,0.00156788,-0.00802175,-0.00582168,9.3488e-05,-0.00259326,-0.000441364,0.00622629,-0.000932541,0.0146221,0.000706032,-0.00736189,-0.000319116,0.00478935,-0.000254282,0.00029929,-0.0033856,-0.00273237,0.00107477,-0.000217862,-1.52988e-05,0.000970617,-0.00613937,0.00103457,0.0104367,-0.00582168,9.3488e-05,-0.00259326,-0.000441364,0.00622629,-0.000932541,0,0,0,0,0,0,0,0,0,-0.000436135,-2.05242e-05,-0.000277907,-0.000486363,-0.000277961,0.000275651,8.22114e-06,0.000136708,0.000351787,0.000463423,-7.45985e-05,5.56423e-06
640,0.00051179,-0.00469241,0.000413825,0.00240677,0.11723,0.11723,0.11723,0.11723,0.11723,0.11723,0.11723,0.11723,0.11723,-0.86723,0.26419,0.517057,1.04366,-0.00469241,0.000413825,0.00240677,-0.00290626,0.000151806,0.000237862,0.00198045,-0.00482754,0.00782508,0.11723,0.00321175,-0.0492362,-0.000751488,0.012412,-0.00170059,-0.00490386,0.0592594,0.0556292,-0.000211583,-0.0140203,-0.000451348,-0.00261089,0.00119448,0.00721956,-0.0590552,-0.00290626,0.000151806,0.000237862,0.00198045,-0.00482754,0.00782508,0,0,0,0,0,0,0,0,0,-0.00058765,-1.82252e-05,0.000168005,-0.000261321,-0.000339681,-0.000174002,-1.09084e-05,-2.43055e-05,0.000306904,0.000214661,-2.84834e-05,5.54705e-05
641,0.00051179,-0.00919656,-0.000707412,-0.00960949,0.0189222,0.0189222,0.0189222,0.0189222,0.0189222,0.0189222,0.0189222,0.0189222,0.0189222,-0.981078,-0.419426,-0.813172,1.34152,-0.00919656,-0.000707412,-0.00960949,-0.0022812,0.00278922,0.00136505,-0.0119208,0.00184532,0.0036767,0.0189222,-0.00187241,0.0291143,-0.0018748,0.0108392,-0.000717016,0.000192575,0.0123809,-0.0192007,-0.00185192,0.000763299,-0.000904292,-0.00313098,-0.0108951,-0.00235004,0.000359517,-0.0022812,0.00278922,0.00136505,-0.0119208,0.00184532,0.0036767,0,0,0,0,0,0,0,0,0,-0.000380971,-1.61457e-06,0.000224751,-0.000335299,-0.000284458,-0.000215607,-4.97102e-05,-5.2578e-05,0.000307769,0.000350875,6.19884e-05,2.57868e-05
642,0.00051179,0.00789514,-0.000269532,0.00681255,0.108832,0.108832,0.108832,0.108832,0.108832,0.108832,0.108832,0.108832,0.108832,-0.891168,-0.833445,0.367465,1.2743,0.00789514,-0.000269532,0.00681255,0.00204236,-0.00318316,0.00139292,0.00298669,-0.00847099,0.00146071,0.108832,0.0146179,-0.178049,0.0124796,-0.0910543,0.00131179,-0.00772775,0.112208,0.168842,-0.00883843,-0.0757427,-0.0161249,0.00383615,0.167066,0.0118427,-0.122857,0.00204236,-0.00318316,0.00139292,0.00298669,-0.00847099,0.00146071,0,0,0,0,0,0,0,0,0,-0.000298761,5.54798e-05,-0.000688865,-0.000501623,-0.000315422,0.000781829,-5.70801e-05,-0.000241779,0.00031168,0.000438274,-4.17973e-06,3.86955e-05
643,0.00051179,-0.0267425,-0.0177571,0.00502241,0.120153,0.120153,0.120153,0.120153,0.120153,0.120153,0.120153,0.120153,0.120153,-0.879847,-0.442258,0.110667,0.990944,-0.0267425,-0.0177571,0.00502241,0.00964914,0.00225864,0.000321016,-0.0089111,-0.000632206,-0.00431451,0.120153,0.663965,4.61962,-0.0797785,-1.21548,-0.383886,0.00441026,-0.930266,-4.20899,0.126657,0.0992235,-0.00256088,-0.0695005,1.13401,-0.122864,0.994744,0.00964914,0.00225864,0.000321016,-0.0089111,-0.000632206,-0.00431451,0,0,0,0,0,0,0,0,0,-0.000312708,0.00260171,-0.000613148,0.000672893,-0.000417108,-0.000162051,-0.000177631,-7.0137e-07,0.00037995,-0.00062558,-3.12295e-05,-0.00140226
644,0.00051179,0.00962794,0.00353604,-0.00525443,0.032546,0.032546,0.032546,0.032546,0.032546,0.032546,0.032546,0.032546,0.032546,-0.782546,0.0116495,-0.830644,1.14126,0.00962794,0.00353604,-0.00525443,-0.0082217,-0.000136488,0.00126656,0.00741925,-0.000924438,-0.00395237,0.032546,0.000302389,-0.00193294,-0.000613205,0.00465272,5.78912e-05,0.000322822,-0.00253225,-0.00775289,0.00382791,-0.000311946,-0.000965031,0.000552181,-0.00787682,0.00138483,0.0072345,-0.0082217,-0.000136488,0.00126656,0.00741925,-0.000924438,-0.00395237,0,0,0,0,0,0,0,0,0,-0.000332274,-4.04738e-05,-1.5287e-05,-0.000307067,-0.000304127,7.79002e-06,5.53585e-05,3.75884e-07,0.000378557,0.000322961,-1.92706e-05,-1.3715e-05
645,0.00051179,0.00930201,-0.00462896,0.0077251,0.0145484,0.0145484,0.0145484,0.0145484,0.0145484,0.0145484,0.0145484,0.0145484,0.0145484,-0.764548,0.384736,0.922405,1.25833,0.00930201,-0.00462896,0.0077251,0.010878,-0.00632348,-0.00255071,-0.00434184,0.00181795,0.0098192,0.0145484,0.000714675,-0.00892448,-0.000257306,0.000123504,-7.64448e-05,0.00053231,-0.0004,-0.000301086,-0.00113456,-0.000947746,-0.000257491,-0.000267588,0.0054532,-0.000834171,-0.00705751,0.010878,-0.00632348,-0.00255071,-0.00434184,0.00181795,0.0098192,0,0,0,0,0,0,0,0,0,-0.000672825,4.05387e-05,0.000160686,-0.00030605,-0.000352586,-0.000226494,-4.48066e-05,2.06279e-05,0.00034862,0.000285866,-5.0233e-06,2.75006e-05
646,0.00051179,0.000452019,-0.00171773,0.00113736,0.0525046,0.0525046,0.0525046,0.0525046,0.0525046,0.0525046,0.0525046,0.0525046,0.0525046,-0.928149,0.0969295,0.947495,1.32989,0.000452019,-0.00171773,0.00113736,-0.00309087,-0.000982931,-0.00208115,0.0050798,-0.000713404,0.00324102,0.0525046,0.00124718,-0.00149213,-0.000130616,-0.00200981,0.000218193,0.000180177,0.00446155,0.000821919,0.00032383,-0.000691431,-2.16132e-05,-0.000519704,0.00441898,-0.00126426,-0.00507921,-0.00309087,-0.000982931,-0.00208115,0.0050798,-0.000713404,0.00324102,0,0,0,0,0,0,0,0,0,-0.00070665,-1.56069e-05,2.26166e-05,-0.000273036,-0.000332111,-3.3752e-05,2.06296e-05,1.78058e-05,0.000307165,0.000254027,-2.51559e-05,3.49529e-06
647,0.00051179,0.0471357,-0.00279764,-0.0367566,0.0515371,0.0515371,0.0515371,0.0515371,0.0515371,0.0515371,0.0515371,0.0515371,0.0515371,-0.659205,0.0214343,0.0484629,0.661331,0.0471357,-0.00279764,-0.0367566,0.0209287,-0.0194304,0.0266982,-0.0178546,0.00035755,0.00878397,0.0515371,0.137326,-1.61246,0.0529569,-0.210542,1.87058,-0.039131,-1.03037,-0.305257,0.38034,0.163052,0.0146447,0.575809,0.0502874,0.0327378,0.491321,0.0209287,-0.0194304,0.0266982,-0.0178546,0.00035755,0.00878397,0,0,0,0,0,0,0,0,0,-0.00044477,0.000142509,0.000172623,0.00200752,-0.000318313,0.000162643,0.00116366,0.000516796,0.00030455,-0.00213185,-0.000366773,-0.000441155
648,0.00051179,0.0654454,0.0331028,0.0290966,0.0124098,0.0124098,0.0124098,0.0124098,0.0124098,0.0124098,0.0124098,0.0124098,0.0124098,-0.76241,0.846519,0.260507,1.16864,0.0654454,0.0331028,0.0290966,0.0834169,-0.0109219,0.0397908,-0.0333982,0.0895197,-0.048718,0.0124098,0.00185217,-0.136408,-0.00147241,0.210032,-0.00321954,-0.00196496,0.411594,0.0741823,-0.0253098,0.190642,0.0413073,-0.0505712,-0.433777,0.0194767,-0.39012,0.0834169,-0.0109219,0.0397908,-0.0333982,0.0895197,-0.048718,0,0,0,0,0,0,0,0,0,-0.000197373,0.000429438,0.000547668,-0.00128647,-0.000505412,-0.000671611,-0.000290447,0.000797095,0.000377811,0.00166473,0.000511175,-0.000143114
649,0.00051179,-0.00815814,0.00367029,-0.00987595,0.0161437,0.0161437,0.0161437,0.0161437,0.0161437,0.0161437,0.0161437,0.0161437,0.0161437,-0.983856,0.791751,-0.567301,1.38444,-0.00815814,0.00367029,-0.00987595,0.00139842,0.00120027,-0.00233623,-0.00338059,-0.0212786,0.005643,0.0161437,-0.00391321,0.061268,-0.00214946,-0.00615805,-0.00138882,-0.00485323,0.0344336,-0.0517211,0.00264971,-0.0184264,0.00147457,0.00711312,0.0209141,-0.00250377,-0.0316708,0.00139842,0.00120027,-0.00233623,-0.00338059,-0.0212786,0.005643,0,0,0,0,0,0,0,0,0,-0.0006117,-1.24511e-05,-0.000490273,-0.000553252,-0.000319177,0.000480781,-3.53159e-06,5.5529e-05,0.000234842,0.000481358,-0.000253569,1.5819e-05
650,0.00051179,-0.00482282,-0.0162138,0.00332478,0.0438714,0.0438714,0.0438714,0.0438714,0.0438714,0.0438714,0.0438714,0.0438714,0.0438714,-0.793871,0.313281,-0.333914,0.916447,-0.00482282,-0.0162138,0.00332478,-0.00353821,0.00301637,-0.00215368,-0.00411196,-0.0200979,0.00451516,0.0438714,-0.0021755,0.168709,0.000608511,0.00191643,0.00630635,-0.0110374,0.403327,-0.170193,0.039818,0.066792,-0.00760137,0.022353,-0.0524946,-0.0349765,-0.429005,-0.00353821,0.00301637,-0.00215368,-0.00411196,-0.0200979,0.00451516,0,0,0,0,0,0,0,0,0,-0.000551738,-2.80274e-05,-0.000259513,-0.000694384,-0.000286693,0.000295762,0.000179071,-0.000203186,0.000345476,0.000562473,-7.38062e-05,-0.000151766
651,0.00051179,-0.00102424,0.00408757,-0.00243828,0.078247,0.078247,0.078247,0.078247,0.078247,0.078247,0.078247,0.078247,0.078247,-0.921753,-0.245805,-0.615377,1.13523,-0.00102424,0.00408757,-0.00243828,-0.00332988,0.00267584,0.000295436,-0.00679595,0.000572494,-0.00114779,0.078247,-0.00151925,0.0331102,-0.00261914,0.0141824,-0.00105152,-0.00410835,0.0255063,-0.0310345,0.00539587,-0.000259851,-0.00412376,-0.00280913,-0.0180101,-0.00219841,-0.0202589,-0.00332988,0.00267584,0.000295436,-0.00679595,0.000572494,-0.00114779,0,0,0,0,0,0,0,0,0,-0.000412807,-1.3174e-05,0.000141571,-0.000321402,-0.000308985,-0.000141004,4.07123e-06,-4.52234e-05,0.000334606,0.000283273,9.71069e-06,-5.65938e-06
652,0.00051179,-0.0229838,-0.00220398,0.00963843,0.0588676,0.0588676,0.0588676,0.0588676,0.0588676,0.0588676,0.0588676,0.0588676,0.0588676,-0.879859,0.941132,-0.230609,1.30884,-0.0229838,-0.00220398,0.00963843,-0.00325719,-0.00679438,-0.0226219,-0.00740241,0.0200101,-1.4171e-05,0.0588676,-0.0937137,0.148886,0.0332816,-0.0583149,-0.360169,0.0226928,-0.920862,0.234266,-0.00134777,-0.0179779,0.0336487,-0.372302,0.0784967,0.0918087,1.28353,-0.00325719,-0.00679438,-0.0226219,-0.00740241,0.0200101,-1.4171e-05,0,0,0,0,0,0,0,0,0,-0.000959411,-0.000468785,-0.000887667,-0.00088209,-0.000155175,0.00115254,-2.76818e-05,0.000515557,0.000290431,0.000882799,2.10308e-05,0.000475042
653,0.00051179,0.00380014,0.00135921,0.00308283,0.098319,0.098319,0.098319,0.098319,0.098319,0.098319,0.098319,0.098319,0.098319,-0.901681,-0.703867,0.51709,1.25532,0.00380014,0.00135921,0.00308283,0.00068819,0.000487018,-0.001384,0.00015211,0.00108845,0.00487923,0.098319,0.00434341,-0.0447855,0.00160957,-0.0205052,-0.00690767,-0.00594266,0.0503138,0.047893,0.00139861,0.00491157,-0.00272921,0.0133245,0.0142344,0.00725134,-0.0667211,0.00068819,0.000487018,-0.001384,0.00015211,0.00108845,0.00487923,0,0,0,0,0,0,0,0,0,-0.000436448,3.56619e-06,-0.000479408,-0.000371408,-0.000344777,0.000500373,-1.38382e-05,-4.03019e-05,0.000317089,0.000298142,2.38943e-05,3.90611e-05
654,0.00051179,0.0599347,0.0273572,-0.00755644,0.103561,0.103561,0.103561,0.103561,0.103561,0.103561,0.103561,0.103561,0.103561,-0.853561,-0.807521,0.012094,1.17508,0.0599347,0.0273572,-0.00755644,-0.0023212,-0.0129232,0.00559124,0.00455466,0.00118121,-0.00714843,0.103561,0.138659,1.25161,0.0329928,0.197918,-0.0934902,0.680915,4.72059,-1.21805,0.00412516,0.061559,0.0992361,-0.223635,-0.286834,-0.0573798,-4.4894,-0.0023212,-0.0129232,0.00559124,0.00455466,0.00118121,-0.00714843,0,0,0,0,0,0,0,0,0,-0.000495188,0.000588816,4.11372e-06,0.00560555,-0.000348711,0.000196582,-4.9473e-05,0.00150233,0.000564359,0.00125951,-0.000498159,-0.000415513
655,0.00051179,0.00376651,0.00384026,-0.006967,0.0572118,0.0572118,0.0572118,0.0572118,0.0572118,0.0572118,0.0572118,0.0572118,0.0572118,-0.807212,0.448384,-0.834933,1.24489,0.00376651,0.00384026,-0.006967,-0.00756884,0.000453779,0.00145745,0.00363525,0.00305504,-0.00218792,0.0572118,0.000426188,0.00363542,-0.000584595,0.00410135,0.000251359,0.000546958,-0.00203841,-0.00765329,0.00061853,-0.00240882,-0.000470874,0.000558805,-0.0055328,0.000532698,0.0084466,-0.00756884,0.000453779,0.00145745,0.00363525,0.00305504,-0.00218792,0,0,0,0,0,0,0,0,0,-0.000379689,-3.04701e-05,-0.000208716,-0.000376282,-0.000288779,0.000207408,2.65121e-05,8.07138e-05,0.000353582,0.000396326,-5.48721e-05,-3.03292e-06
656,0.00051179,-0.0144624,-0.00613549,-0.0136673,0.0686948,0.0686948,0.0686948,0.0686948,0.0686948,0.0686948,0.0686948,0.0686948,0.0686948,-0.931305,-0.71302,-0.428467,1.24872,-0.0144624,-0.00613549,-0.0136673,-0.00727669,0.00277705,0.00149709,-0.00403691,0.00354913,0.00374367,0.0686948,-0.0203885,0.268795,-0.00638597,0.0534374,0.0243363,-0.0223355,0.182664,-0.278669,0.00253488,-0.0153848,-0.00930552,0.0305417,-0.0319171,-0.0164764,-0.199539,-0.00727669,0.00277705,0.00149709,-0.00403691,0.00354913,0.00374367,0,0,0,0,0,0,0,0,0,-0.000635818,-8.99797e-05,0.000539765,-0.000490545,-0.000332857,-0.000575854,4.08359e-05,-0.000193046,0.00030259,0.000282161,0.000135482,-1.53177e-05
657,0.00051179,0.00349422,0.00456659,-0.0037507,0.0893968,0.0893968,0.0893968,0.0893968,0.0893968,0.0893968,0.0893968,0.0893968,0.0893968,-0.910603,-0.229224,0.429729,1.03267,0.00349422,0.00456659,-0.0037507,-6.10249e-06,-0.000498923,0.000464166,-0.00017704,0.004016,0.00280609,0.0893968,0.00988294,-0.128195,-0.000772946,-0.00636429,0.00570085,-0.0142775,0.107754,0.119,0.0178957,0.0416198,0.00490318,-0.0178249,-0.0398221,0.0158876,-0.0861784,-6.10249e-06,-0.000498923,0.000464166,-0.00017704,0.004016,0.00280609,0,0,0,0,0,0,0,0,0,-0.000570141,-4.0264e-06,-0.000167943,-0.000278075,-0.00035649,0.000155224,3.51828e-05,0.00010127,0.000309817,0.000139941,-1.20779e-05,4.00578e-05
658,0.00051179,0.0114336,-0.0163622,0.0109441,0.0753711,0.0753711,0.0753711,0.0753711,0.0753711,0.0753711,0.0753711,0.0753711,0.0753711,-0.825371,-0.662506,0.40032,1.13155,0.0114336,-0.0163622,0.0109441,0.00167806,-0.000103574,0.00618128,-0.013573,-0.0106646,0.00998582,0.0753711,0.0043496,-0.132235,0.00238735,-0.0296304,-0.00978293,-0.00904125,0.169347,0.130584,-0.0177895,-0.00925938,-0.0055821,0.0439869,0.055252,0.0183525,-0.224278,0.00167806,-0.000103574,0.00618128,-0.013573,-0.0106646,0.00998582,0,0,0,0,0,0,0,0,0,-0.00041274,2.66727e-05,-0.000515361,-0.000415474,-0.000298643,0.000538198,-0.000160278,-9.09975e-05,0.000330359,0.000386874,-7.147e-05,0.000138226
659,0.00051179,-0.0197672,-0.038792,0.0345002,0.00136804,0.00136804,0.00136804,0.00136804,0.00136804,0.00136804,0.00136804,0.00136804,0.00136804,-0.998632,0.700749,-0.0840809,1.22286,-0.0197672,-0.038792,0.0345002,0.0443331,-0.00775205,0.00181333,-0.0482023,0.00243215,-0.0343747,0.00136804,-0.280953,-2.09946,0.0364946,0.150378,0.250449,0.14309,0.26581,1.86878,-0.000657218,0.129359,-0.0335387,-0.127337,-0.240945,0.0663589,-0.172973,0.0443331,-0.00775205,0.00181333,-0.0482023,0.00243215,-0.0343747,0,0,0,0,0,0,0,0,0,-0.000672393,-0.000890606,-0.000197454,0.000830336,-0.000301892,0.00048488,4.81971e-05,0.000146394,0.000370666,0.000618697,-0.00045746,0.000452416
660,0.00051179,-0.0258981,0.0106244,-0.0304066,0.0629216,0.0629216,0.0629216,0.0629216,0.0629216,0.0629216,0.0629216,0.0629216,0.0629216,-0.812922,0.0538398,-0.229723,0.846471,-0.0258981,0.0106244,-0.0304066,-0.0146857,-0.00578649,0.00570991,0.014,-0.0109299,0.0108316,0.0629216,-0.0348683,0.821501,-0.00431304,0.15557,-0.0551121,-0.0508265,0.485662,-0.740491,-0.0716393,0.0829352,-0.0162522,-0.110392,-0.24913,-0.0650642,-0.344864,-0.0146857,-0.00578649,0.00570991,0.014,-0.0109299,0.0108316,0,0,0,0,0,0,0,0,0,-0.000574201,-6.15096e-05,-0.000137611,-0.000801321,-0.000332976,3.66161e-05,-0.000101936,-0.000187125,0.00034745,0.000350156,-8.46956e-05,-8.49022e-05
661,0.00051179,-0.0286039,0.00948616,-0.0177736,0.0169931,0.0169931,0.0169931,0.0169931,0.0169931,0.0169931,0.0169931,0.0169931,0.0169931,-0.983007,-0.601154,-0.383855,1.21451,-0.0286039,0.00948616,-0.0177736,-0.0040544,-0.00171353,0.00310005,-0.014038,0.00412423,0.0232674,0.0169931,-0.0777567,0.410011,-0.00371396,0.0370277,0.09161,-0.0589933,0.0401662,-0.473017,-0.00952305,-0.0831632,0.00169151,0.0818511,0.0366493,-0.029094,-0.104244,-0.0040544,-0.00171353,0.00310005,-0.014038,0.00412423,0.0232674,0,0,0,0,0,0,0,0,0,-0.000589252,-0.000280749,0.000475079,-0.000392838,-0.000306481,-0.000529354,1.05009e-05,-8.01347e-05,0.000316426,-0.000166094,0.000138292,9.91735e-05
662,0.00051179,0.00207125,4.63668e-05,-0.00693166,0.0823807,0.0823807,0.0823807,0.0823807,0.0823807,0.0823807,0.0823807,0.0823807,0.0823807,-0.917619,0.0191356,-0.563472,1.07698,0.00207125,4.63668e-05,-0.00693166,-0.00349098,0.00078101,0.00232915,-0.00598561,-0.00127352,-0.00165267,0.0823807,-0.00166319,0.0387185,-0.00230777,0.0109836,-0.000287091,-0.00562948,0.0411342,-0.0405026,0.00702564,0.00606563,-0.00517075,0.000946255,-0.0170956,-0.003569,-0.0351488,-0.00349098,0.00078101,0.00232915,-0.00598561,-0.00127352,-0.00165267,0,0,0,0,0,0,0,0,0,-0.000412561,-1.49988e-05,-1.10471e-05,-0.000324637,-0.00030815,-4.22042e-06,1.59723e-05,-3.98794e-05,0.000332646,0.000291634,-2.45633e-05,-1.53363e-05
663,0.00051179,0.005421,0.0117276,0.0103522,0.079145,0.079145,0.079145,0.079145,0.079145,0.079145,0.079145,0.079145,0.079145,-0.829145,-0.31808,-0.378399,0.96532,0.005421,0.0117276,0.0103522,0.000402412,-0.000707742,-0.00044791,-0.0034421,0.0127655,0.0010201,0.079145,-0.00646906,0.175899,-2.89008e-05,-0.00633952,-0.000129442,-0.0132686,0.26589,-0.18119,0.0225745,-0.0183087,-0.00623153,-0.00121807,0.0129206,-0.023124,-0.275024,0.000402412,-0.000707742,-0.00044791,-0.0034421,0.0127655,0.0010201,0,0,0,0,0,0,0,0,0,-0.000517644,-1.99046e-05,0.000220284,-0.000536392,-0.000337357,-0.00022765,0.00010609,3.04788e-05,0.000351675,0.000399226,3.48608e-05,-0.000100091
664,0.00051179,-0.00976012,-0.00496113,0.0147039,0.0358463,0.0358463,0.0358463,0.0358463,0.0358463,0.0358463,0.0358463,0.0358463,0.0358463,-0.785846,0.821409,0.371584,1.19597,-0.00976012,-0.00496113,0.0147039,0.00294215,0.00846378,0.016082,-0.0167436,0.0316012,-0.0137122,0.0358463,0.00045003,-0.0222014,-0.00236385,0.0780035,0.00375588,-0.0018878,0.0518749,0.0282057,-0.0171273,0.0954999,0.0155156,-0.0174437,-0.168542,0.0054864,-0.0491351,0.00294215,0.00846378,0.016082,-0.0167436,0.0316012,-0.0137122,0,0,0,0,0,0,0,0,0,-0.000314884,6.162e-05,0.000600309,-0.000590165,-0.000434095,-0.00053931,-0.000124695,0.000305226,0.000338733,0.000732108,0.000165942,3.53e-06
665,0.00051179,0.0262012,-0.0101976,-0.0475746,0.074773,0.074773,0.074773,0.074773,0.074773,0.074773,0.074773,0.074773,0.074773,-0.925227,-0.855278,0.169285,1.2713,0.0262012,-0.0101976,-0.0475746,0.00100467,-0.0111127,0.0183346,0.00119928,0.0157769,0.00548266,0.074773,0.312308,1.90589,0.0893216,0.252164,0.092212,0.0635893,-1.28534,-2.02431,0.010818,0.123062,-0.0195106,0.0601913,-0.365028,-0.091043,1.27273,0.00100467,-0.0111127,0.0183346,0.00119928,0.0157769,0.00548266,0,0,0,0,0,0,0,0,0,-0.000223793,0.00128991,-0.000608823,0.000378713,-0.000303591,0.00139091,-0.000216571,-2.55996e-05,0.000338867,0.000440527,-1.17367e-05,-0.000704459
666,0.00051179,-0.00384326,0.00128245,0.00167677,0.116728,0.116728,0.116728,0.116728,0.116728,0.116728,0.116728,0.116728,0.116728,-0.866728,-0.621393,-0.47761,1.16853,-0.00384326,0.00128245,0.00167677,-0.00418642,0.00128891,0.00108076,0.00247925,-0.0069737,-0.00226823,0.116728,-0.00357597,0.0947582,-0.00141799,0.012557,0.00503903,-0.00775626,0.115329,-0.095954,0.0111904,0.0174167,-0.00562721,0.0048791,-0.0312561,-0.00883304,-0.121885,-0.00418642,0.00128891,0.00108076,0.00247925,-0.0069737,-0.00226823,0,0,0,0,0,0,0,0,0,-0.000571527,-3.28188e-05,0.00044364,-0.000441206,-0.000351006,-0.000444931,7.43412e-05,-0.000175186,0.000333592,0.000374451,4.91771e-05,-4.95132e-05
667,0.00051179,-0.00834367,-0.00561298,0.0197159,0.0265192,0.0265192,0.0265192,0.0265192,0.0265192,0.0265192,0.0265192,0.0265192,0.0265192,-0.776519,-0.345746,-0.511367,0.991977,-0.00834367,-0.00561298,0.0197159,-0.00584718,0.00570614,0.00595796,0.0104674,-0.000198719,0.00960465,0.0265192,-0.000218913,0.0135334,-0.000559799,0.00831888,0.000534605,-0.000522707,0.0191728,-0.00572431,0.019915,0.0165855,-0.00613937,-0.000171002,-0.0192914,-0.00639655,-0.0387177,-0.00584718,0.00570614,0.00595796,0.0104674,-0.000198719,0.00960465,0,0,0,0,0,0,0,0,0,-0.000470266,-6.20895e-05,0.00022306,-0.000369107,-0.000348324,-0.000171597,0.000120153,-6.90917e-05,0.000379771,0.00042346,5.7108e-06,-1.57185e-05
668,0.00051179,0.00106946,0.000462318,0.0030049,0.0699861,0.0699861,0.0699861,0.0699861,0.0699861,0.0699861,0.0699861,0.0699861,0.0699861,-0.930014,-0.259159,0.557203,1.1147,0.00106946,0.000462318,0.0030049,-0.000393586,0.00055176,0.000553941,0.00391919,0.00157405,0.00294164,0.0699861,0.0046872,-0.0510746,-0.00119071,0.015538,-0.00120541,-0.00546305,0.0473985,0.0512106,0.00929005,0.00969442,0.00187308,0.00141028,-0.0256947,0.00819109,-0.0518137,-0.000393586,0.00055176,0.000553941,0.00391919,0.00157405,0.00294164,0,0,0,0,0,0,0,0,0,-0.00059513,-1.1573e-05,-0.000177984,-0.000215386,-0.000351751,0.000171594,3.30051e-05,5.43871e-05,0.000311755,0.000166295,-1.99158e-05,2.26226e-05
669,0.00051179,-0.00943686,-0.0032736,0.00782384,0.107729,0.107729,0.107729,0.107729,0.107729,0.107729,0.107729,0.107729,0.107729,-0.892271,0.600969,0.628269,1.24581,-0.00943686,-0.0032736,0.00782384,-0.000811087,-0.00033937,0.00138797,0.000662384,0.000728023,0.00633568,0.107729,0.00134058,-0.0225212,-0.00013613,0.0115916,0.000510703,-0.00195558,0.0359307,0.0314474,-0.000281649,-5.0701e-05,-0.000697187,0.0020127,-0.00826732,0.00288345,-0.0457672,-0.000811087,-0.00033937,0.00138797,0.000662384,0.000728023,0.00633568,0,0,0,0,0,0,0,0,0,-0.000531308,-9.04024e-06,0.000331377,-0.000336705,-0.000338132,-0.000336132,-9.78405e-06,3.34456e-05,0.000297263,0.000331029,-3.31372e-05,3.44079e-05
670,0.00051179,0.000231627,-0.00336268,-0.00129961,0.050049,0.050049,0.050049,0.050049,0.050049,0.050049,0.050049,0.050049,0.050049,-0.943009,-0.159652,0.949951,1.34802,0.000231627,-0.00336268,-0.00129961,-0.00815105,-0.000640579,-0.000945734,0.00695071,-0.00114342,0.00125067,0.050049,0.00135447,-0.00200462,-0.000183813,-0.00193767,0.00025201,0.000119254,0.00576572,0.00152098,0.000573827,0.00123093,8.344e-05,3.16704e-06,0.00406942,-0.00132116,-0.00446928,-0.00815105,-0.000640579,-0.000945734,0.00695071,-0.00114342,0.00125067,0,0,0,0,0,0,0,0,0,-0.000697829,-3.47415e-05,-9.2623e-05,-0.000254599,-0.000339681,8.43791e-05,3.68641e-05,1.45946e-05,0.000310317,0.000246334,-2.51945e-05,-1.11104e-06
671,0.00051179,0.0196314,0.0137666,-0.00304168,0.0556245,0.0556245,0.0556245,0.0556245,0.0556245,0.0556245,0.0556245,0.0556245,0.0556245,-0.944376,0.115744,0.28856,0.994238,0.0196314,0.0137666,-0.00304168,0.00656668,-0.00432621,-0.00190235,-0.00116154,0.00593297,0.0132267,0.0556245,0.0408666,-0.0731164,0.0157257,-0.0609539,0.049599,-0.0262197,-0.202471,0.00388607,0.0621546,-0.0333483,-0.0145813,-0.0787285,0.0805356,0.00234195,0.284241,0.00656668,-0.00432621,-0.00190235,-0.00116154,0.00593297,0.0132267,0,0,0,0,0,0,0,0,0,-0.000534974,9.40951e-05,9.91254e-05,-0.000348348,-0.000328595,1.48692e-05,0.000161894,-6.05091e-05,0.000294827,6.7127e-05,-2.5974e-05,-6.52278e-05
672,0.00051179,-0.000759992,0.0014582,0.00108478,0.0735069,0.0735069,0.0735069,0.0735069,0.0735069,0.0735069,0.0735069,0.0735069,0.0735069,-0.823507,-0.509609,0.790354,1.25001,-0.000759992,0.0014582,0.00108478,0.00245882,-0.00111665,0.000623047,-0.00281481,-0.00341308,0.00490926,0.0735069,0.000268415,9.89924e-05,0.000223823,-0.00224346,-0.000783974,0.000338756,0.00125545,0.00144497,-0.000618475,-0.00133156,-0.000852528,0.000504807,0.00211682,-0.000475224,-0.00284504,0.00245882,-0.00111665,0.000623047,-0.00281481,-0.00341308,0.00490926,0,0,0,0,0,0,0,0,0,-0.000594683,9.33466e-06,-0.000271661,-0.000293223,-0.000322932,0.000262733,-2.14679e-05,-1.87569e-05,0.000346683,0.000302841,-2.38991e-05,1.78687e-05
673,0.00051179,0.0148294,-0.00313401,0.0140263,0.0943048,0.0943048,0.0943048,0.0943048,0.0943048,0.0943048,0.0943048,0.0943048,0.0943048,-0.844305,0.306699,-0.0616052,0.900394,0.0148294,-0.00313401,0.0140263,-0.0148128,0.0039141,-0.00952304,0.00525467,0.00854558,-0.00585967,0.0943048,-0.39972,-3.38355,-0.136011,-1.29462,-0.134711,0.175759,0.901254,3.50343,-0.0946709,-0.155888,0.0648862,0.0939871,1.45364,0.0963639,-1.00927,-0.0148128,0.0039141,-0.00952304,0.00525467,0.00854558,-0.00585967,0,0,0,0,0,0,0,0,0,-0.000729427,-0.00159561,-0.00073778,0.00196962,-0.000366325,-0.00058319,2.99709e-05,0.000651201,0.00040473,-0.000307258,8.3117e-05,0.000929573
674,0.00051179,0.00494853,-0.00345188,0.00132703,0.0929213,0.0929213,0.0929213,0.0929213,0.0929213,0.0929213,0.0929213,0.0929213,0.0929213,-0.907079,0.801472,-0.509378,1.31325,0.00494853,-0.00345188,0.00132703,-0.00163546,-0.00229703,0.00232351,-0.000997208,-0.00342042,-0.00238798,0.0929213,-0.00213967,0.0413181,-0.000873022,-2.84728e-05,-0.00356242,-0.00472351,0.0383767,-0.0427042,0.00710539,-0.0476591,0.00399204,0.00373266,0.0511394,-0.0039339,-0.0434364,-0.00163546,-0.00229703,0.00232351,-0.000997208,-0.00342042,-0.00238798,0,0,0,0,0,0,0,0,0,-0.000650354,-1.42731e-05,-0.000534144,-0.000586984,-0.000274414,0.000502444,3.51434e-05,0.000169495,0.000272356,0.000562984,-0.000163779,-2.70069e-05
675,0.00051179,-0.00787856,0.00714633,-0.00633777,0.0520058,0.0520058,0.0520058,0.0520058,0.0520058,0.0520058,0.0520058,0.0520058,0.0520058,-0.802006,-0.667075,-0.476201,1.14672,-0.00787856,0.00714633,-0.00633777,-0.0148466,0.00447455,0.00164165,0.00552368,-0.0145918,-0.000680721,0.0520058,0.000273243,0.026278,-0.00136154,-0.00032257,0.00282696,-0.000962075,0.0700225,-0.0212264,0.0145661,0.0359728,-0.00698767,0.00308905,-0.0427966,-0.00497188,-0.0667738,-0.0148466,0.00447455,0.00164165,0.00552368,-0.0145918,-0.000680721,0,0,0,0,0,0,0,0,0,-0.000596054,-7.27097e-05,0.000471278,-0.000492756,-0.000384057,-0.000440148,0.000100606,-0.000223332,0.000360228,0.000499552,7.53723e-06,-2.81059e-05
676,0.00051179,-0.0035165,0.00164794,-0.00157048,0.0985722,0.0985722,0.0985722,0.0985722,0.0985722,0.0985722,0.0985722,0.0985722,0.0985722,-0.901428,-0.628065,0.699694,1.30254,-0.0035165,0.00164794,-0.00157048,0.001718,-0.00122129,-0.00038969,0.00514882,0.00408563,0.00332595,0.0985722,0.000854567,-0.0118823,0.000645645,-0.004848,-0.000659912,-0.000918552,0.021949,0.0160587,-0.000554251,-0.00248364,-0.00124894,0.00208469,0.00568369,0.000412423,-0.0224632,0.001718,-0.00122129,-0.00038969,0.00514882,0.00408563,0.00332595,0,0,0,0,0,0,0,0,0,-0.000530504,2.79557e-07,-0.00035044,-0.000322215,-0.000345463,0.000344683,1.03896e-05,1.257e-05,0.000322215,0.000309133,1.57969e-05,6.10859e-06
677,0.00051179,-0.000595279,-0.00976123,0.00844629,0.0781988,0.0781988,0.0781988,0.0781988,0.0781988,0.0781988,0.0781988,0.0781988,0.0781988,-0.828199,-0.230694,0.366813,0.934711,-0.000595279,-0.00976123,0.00844629,-0.00292687,0.00170406,-0.00268996,-0.00227836,0.0174555,0.000446614,0.0781988,0.00342251,-0.106713,-0.000656955,0.00980881,0.00256007,-0.0112452,0.161404,0.104748,0.00466104,0.0761458,0.00430569,-0.0191064,-0.0761934,0.0161161,-0.150744,-0.00292687,0.00170406,-0.00268996,-0.00227836,0.0174555,0.000446614,0,0,0,0,0,0,0,0,0,-0.000550263,-1.99538e-05,-0.000182586,-0.000380587,-0.000351334,0.000193057,-1.05186e-05,0.000204398,0.000321537,0.000241236,1.32147e-05,6.03817e-05
678,0.00051179,-0.00103568,-0.00584793,0.00466077,0.109446,0.109446,0.109446,0.109446,0.109446,0.109446,0.109446,0.109446,0.109446,-0.890554,-0.527009,-0.698007,1.24821,-0.00103568,-0.00584793,0.00466077,-0.00520908,0.00369098,0.00200605,-0.0030419,-0.00142709,-0.00113518,0.109446,-0.000444934,0.0183391,-0.00156306,0.013598,-0.0011772,-0.00142343,0.00384437,-0.0161262,0.00205572,0.00592216,-0.00111889,-0.00402228,-0.0136722,-0.00052819,-0.00448286,-0.00520908,0.00369098,0.00200605,-0.0030419,-0.00142709,-0.00113518,0,0,0,0,0,0,0,0,0,-0.000450782,-1.8689e-05,0.000306023,-0.000363742,-0.000311667,-0.000284744,4.65013e-06,-8.7333e-05,0.000334606,0.000369568,6.18732e-05,1.26417e-06
679,0.00051179,0.0193348,0.0429086,-0.0147705,0.0736969,0.0736969,0.0736969,0.0736969,0.0736969,0.0736969,0.0736969,0.0736969,0.0736969,-0.823697,-0.646463,0.118671,1.05379,0.0193348,0.0429086,-0.0147705,0.0212037,-0.00776584,0.00705445,0.0165817,0.0051563,0.0207672,0.0736969,1.23654,10.3231,0.0259117,-0.272728,-1.12512,-0.181238,-5.851,-9.21727,0.138103,0.506396,0.0202478,0.279821,-0.276577,-0.103222,5.58595,0.0212037,-0.00776584,0.00705445,0.0165817,0.0051563,0.0207672,0,0,0,0,0,0,0,0,0,9.76771e-06,0.00475414,-0.000262552,-0.000203432,-0.000317091,0.000444011,-0.000761166,0.000458324,0.000313193,-0.0015384,-0.000204283,-0.00194686
680,0.00051179,0.00633307,0.00654848,0.00434368,0.0331976,0.0331976,0.0331976,0.0331976,0.0331976,0.0331976,0.0331976,0.0331976,0.0331976,-0.966802,0.415022,0.65143,1.23746,0.00633307,0.00654848,0.00434368,0.00111656,-0.000739964,-0.00246,0.00712643,-0.0049207,0.000833627,0.0331976,0.00287504,-0.0370735,-0.000729673,0.0141404,-0.000755028,-0.00394523,0.0347239,0.0314955,0.00693454,-0.00965244,-0.00071814,-0.00198696,-0.0110364,0.00568931,-0.0370806,0.00111656,-0.000739964,-0.00246,0.00712643,-0.0049207,0.000833627,0,0,0,0,0,0,0,0,0,-0.000590421,-8.39832e-06,0.000227746,-0.000262911,-0.000318849,-0.000242442,4.19485e-05,-7.83584e-06,0.000286184,0.000198859,-4.85526e-05,4.25833e-06
681,0.00051179,0.0388041,-0.0204828,0.00486386,0.0274111,0.0274111,0.0274111,0.0274111,0.0274111,0.0274111,0.0274111,0.0274111,0.0274111,-0.972589,-0.799446,-0.00605194,1.259,0.0388041,-0.0204828,0.00486386,-0.00695994,-0.0103715,-0.0337225,-0.00654885,-0.0122595,-0.00241487,0.0274111,-0.0162575,-0.433313,0.00037653,-0.04054,0.0348487,0.340994,1.39235,0.359661,0.0089709,0.0491165,0.0496047,-0.0805072,0.0119063,0.0163147,-1.31671,-0.00695994,-0.0103715,-0.0337225,-0.00654885,-0.0122595,-0.00241487,0,0,0,0,0,0,0,0,0,-0.000573136,-0.000108131,-0.000141292,0.00173495,-0.000375712,4.1342e-05,2.00667e-05,-5.77689e-05,0.00040409,0.00133776,0.000431221,7.74556e-05
682,0.00051179,-0.000921571,-0.000251196,0.00271099,0.111558,0.111558,0.111558,0.111558,0.111558,0.111558,0.111558,0.111558,0.111558,-0.861558,0.135838,0.720102,1.13105,-0.000921571,-0.000251196,0.00271099,-0.00210166,-0.00132838,3.61018e-05,0.000902305,0.000488677,0.00551309,0.111558,0.000106767,-0.00487802,0.000311442,-0.000966754,0.000731867,-0.000233095,0.0115549,0.00506772,-0.0016105,0.000273373,-0.00103565,-0.00110984,0.000944577,0.000979941,-0.013156,-0.00210166,-0.00132838,3.61018e-05,0.000902305,0.000488677,0.00551309,0,0,0,0,0,0,0,0,0,-0.000649489,-1.43475e-05,7.04085e-05,-0.000222545,-0.000338519,-8.05778e-05,-7.914e-06,9.71e-06,0.000318654,0.000220575,-1.51797e-05,2.80922e-05
683,0.00051179,-0.0128475,-0.021522,0.0183289,0.00372183,0.00372183,0.00372183,0.00372183,0.00372183,0.00372183,0.00372183,0.00372183,0.00372183,-0.996278,-0.355172,0.22,1.08033,-0.0128475,-0.021522,0.0183289,0.00118422,0.00304619,0.0198257,-0.00275512,-0.0195688,0.00874411,0.00372183,0.213172,0.4757,-0.0160689,-0.221782,-0.0467365,-0.065871,-0.411045,-0.416116,0.0906251,0.0852387,0.0136516,-0.010754,0.158065,-0.0152406,0.40347,0.00118422,0.00304619,0.0198257,-0.00275512,-0.0195688,0.00874411,0,0,0,0,0,0,0,0,0,-0.000513874,0.000730553,-0.000175878,-9.91444e-05,-0.00041067,4.56512e-05,9.81237e-05,9.92239e-05,0.000349745,-0.000361308,-0.000158395,-0.000373708
684,0.00051179,-0.0116992,-0.000668943,0.00246787,0.0739377,0.0739377,0.0739377,0.0739377,0.0739377,0.0739377,0.0739377,0.0739377,0.0739377,-0.823938,0.477082,-0.0236847,0.952388,-0.0116992,-0.000668943,0.00246787,-0.00154602,-0.0157644,0.0110143,-0.000212915,0.00428679,-0.00588241,0.0739377,-0.367435,-3.23351,-0.0511975,-0.653504,0.21634,0.507002,3.59917,3.02887,-0.0541206,-0.00478156,0.0913904,-0.522245,0.658955,0.0642541,-3.07939,-0.00154602,-0.0157644,0.0110143,-0.000212915,0.00428679,-0.00588241,0,0,0,0,0,0,0,0,0,-0.000722431,-0.00142382,-0.000361847,0.00590106,-0.000326568,-0.000307773,0.00014942,0.000823958,0.000449143,-0.0007209,0.000132814,0.000712946
685,0.00051179,0.00415975,-0.00401014,0.00545504,0.0386048,0.0386048,0.0386048,0.0386048,0.0386048,0.0386048,0.0386048,0.0386048,0.0386048,-0.788605,-0.400842,0.904202,1.26497,0.00415975,-0.00401014,0.00545504,0.00266012,0.000350485,0.00117538,-0.00390727,-0.00374608,0.00666492,0.0386048,0.000863805,-0.00530206,-0.000222914,-0.000956055,0.000123894,0.00052483,6.19769e-05,0.00101842,-0.0011781,0.000429475,-0.000383832,0.000585166,0.00453672,-0.00079238,-0.00610218,0.00266012,0.000350485,0.00117538,-0.00390727,-0.00374608,0.00666492,0,0,0,0,0,0,0,0,0,-0.000652812,1.26453e-05,-0.000196897,-0.000285784,-0.000319595,0.000198172,-3.04012e-05,-7.44036e-06,0.000356324,0.000302786,-3.38588e-05,2.43884e-05
686,0.00051179,0.0122937,-0.00207458,-0.0243715,0.0148132,0.0148132,0.0148132,0.0148132,0.0148132,0.0148132,0.0148132,0.0148132,0.0148132,-0.985187,0.813044,0.322166,1.31736,0.0122937,-0.00207458,-0.0243715,0.00260678,-0.0140872,0.00287939,0.0145758,-0.0383715,0.00278795,0.0148132,0.0538657,-0.0747703,-0.022976,0.0454405,-0.0130995,-0.0168094,-0.104494,0.0755761,0.00442268,-0.0342423,0.00861586,0.0580844,-0.00912366,0.00127161,0.0707815,0.00260678,-0.0140872,0.00287939,0.0145758,-0.0383715,0.00278795,0,0,0,0,0,0,0,0,0,-0.000308834,0.000190596,0.000714564,-0.000336534,-0.000293786,-0.0010852,3.22658e-06,2.82704e-07,0.000244513,0.000197233,-0.000297839,-7.14682e-05
687,0.00051179,0.00642976,-0.001128,-0.0210506,0.0336896,0.0336896,0.0336896,0.0336896,0.0336896,0.0336896,0.0336896,0.0336896,0.0336896,-0.96631,0.703333,0.462895,1.28168,0.00642976,-0.001128,-0.0210506,0.00130335,-0.00593733,-0.00649249,0.0118803,-0.0154855,-0.00397569,0.0336896,0.0143438,-0.116404,-0.00613105,0.0129778,-0.0293032,-0.0156625,0.0373825,0.139277,-0.00509013,0.0103284,0.00188406,0.0462148,-0.0221782,0.0103378,-0.0625467,0.00130335,-0.00593733,-0.00649249,0.0118803,-0.0154855,-0.00397569,0,0,0,0,0,0,0,0,0,-0.000427373,4.50057e-05,0.00047615,-0.000418396,-0.000307376,-0.000596834,7.20487e-07,-1.4112e-05,0.000265181,0.000196846,-0.000121902,-1.41939e-06
688,0.00051179,-0.0145714,-0.00329551,0.00768556,0.0169601,0.0169601,0.0169601,0.0169601,0.0169601,0.0169601,0.0169601,0.0169601,0.0169601,-0.98304,-0.335004,0.540493,1.17078,-0.0145714,-0.00329551,0.00768556,0.00553506,-0.000431031,-0.00323594,0.00750167,-0.000274698,-0.00242289,0.0169601,0.00946577,-0.0767323,-0.00183939,0.0102128,-0.00156334,-0.010303,0.0624496,0.092867,0.0155429,0.02499,0.00406273,-0.0043098,-0.0319073,0.0115544,-0.0658254,0.00553506,-0.000431031,-0.00323594,0.00750167,-0.000274698,-0.00242289,0,0,0,0,0,0,0,0,0,-0.000576325,2.05692e-05,-0.000223058,-0.00022274,-0.000365848,0.000200354,6.0788e-05,5.91364e-05,0.000306025,8.73509e-05,-2.12561e-05,-8.77743e-06
689,0.00051179,0.000510109,-0.00237764,-0.00066345,0.0726396,0.0726396,0.0726396,0.0726396,0.0726396,0.0726396,0.0726396,0.0726396,0.0726396,-0.82264,0.803931,0.856901,1.43434,0.000510109,-0.00237764,-0.00066345,0.00462761,-0.00230208,7.29449e-05,0.00260078,0.00318522,0.00520465,0.0726396,0.000679746,-0.000963123,8.1189e-05,-0.00191853,0.000139866,0.000358887,-8.05476e-05,0.000313148,-0.00061016,0.00140233,-0.000665443,0.000333216,0.00289383,-0.000870027,0.000410781,0.00462761,-0.00230208,7.29449e-05,0.00260078,0.00318522,0.00520465,0,0,0,0,0,0,0,0,0,-0.000558943,1.31145e-05,0.000268043,-0.000442923,-0.000349278,-0.000290251,-3.46912e-06,5.69912e-05,0.000322022,0.000447241,-3.17935e-05,8.25089e-06
690,0.00051179,0.0175923,-0.0120289,0.0037303,0.0506918,0.0506918,0.0506918,0.0506918,0.0506918,0.0506918,0.0506918,0.0506918,0.0506918,-0.800692,-0.0361975,-0.0231998,0.801845,0.0175923,-0.0120289,0.0037303,0.0134713,-0.00291492,-0.0218185,-0.00197247,-0.00436542,0.0027159,0.0506918,-0.0627255,-0.350909,0.014747,0.0208795,-0.350841,0.14773,0.321781,0.684158,-0.0266698,0.0474521,-0.0315739,0.607502,-0.0563028,0.0112551,-0.933014,0.0134713,-0.00291492,-0.0218185,-0.00197247,-0.00436542,0.0027159,0,0,0,0,0,0,0,0,0,-0.000577636,-0.000172511,5.77038e-05,0.00130824,-0.000336433,6.06167e-05,-6.9451e-05,-0.000298475,0.000411652,-4.91189e-05,-6.09182e-05,0.000143615
691,0.00051179,-0.00108906,0.00433112,-0.00189398,0.0864661,0.0864661,0.0864661,0.0864661,0.0864661,0.0864661,0.0864661,0.0864661,0.0864661,-0.913534,-0.240338,-0.655055,1.14952,-0.00108906,0.00433112,-0.00189398,-0.00327632,0.00296317,9.441e-05,-0.00522425,-0.000229555,-0.00124658,0.0864661,-0.00115584,0.0278883,-0.00249421,0.0141459,-0.00109456,-0.00282864,0.0165085,-0.0257047,0.00420953,0.0011152,-0.00330717,-0.00263067,-0.0195923,-0.0014399,-0.0119838,-0.00327632,0.00296317,9.441e-05,-0.00522425,-0.000229555,-0.00124658,0,0,0,0,0,0,0,0,0,-0.000399493,-1.27761e-05,0.000138315,-0.000321429,-0.000308329,-0.000133626,4.31107e-06,-4.55564e-05,0.00033731,0.000294087,1.01892e-05,-4.04779e-06
692,0.00051179,0.0125137,0.00202288,-0.0103566,0.00185396,0.00185396,0.00185396,0.00185396,0.00185396,0.00185396,0.00185396,0.00185396,0.00185396,-0.751854,0.761315,-0.857495,1.3712,0.0125137,0.00202288,-0.0103566,-0.00851924,0.000163838,-0.00212632,-0.000501043,0.00787323,-0.000232042,0.00185396,0.000634208,-0.0108357,-0.000274412,0.00560778,-0.000283267,0.000229202,0.00183794,-0.00139473,0.00186799,-0.00142763,-4.75664e-05,0.00167182,-0.00620302,0.00143909,0.00684688,-0.00851924,0.000163838,-0.00212632,-0.000501043,0.00787323,-0.000232042,0,0,0,0,0,0,0,0,0,-0.000451945,-3.3297e-05,-0.000286935,-0.000495551,-0.000271315,0.000285829,1.29629e-05,0.000145728,0.000356436,0.00047658,-6.74718e-05,1.21633e-05
693,0.00051179,-0.00142574,-0.0178277,0.00438195,0.0957631,0.0957631,0.0957631,0.0957631,0.0957631,0.0957631,0.0957631,0.0957631,0.0957631,-0.845763,-0.529702,-0.072381,1.00057,-0.00142574,-0.0178277,0.00438195,-0.0114061,-0.0102836,0.00913948,0.00495982,-0.00714884,-0.0152214,0.0957631,-0.835429,-7.94998,0.0904828,1.3166,0.68347,0.220006,0.87616,7.26794,-0.1167,-0.189311,-0.0270936,-0.344744,-1.10946,0.171416,-0.535798,-0.0114061,-0.0102836,0.00913948,0.00495982,-0.00714884,-0.0152214,0,0,0,0,0,0,0,0,0,-0.000901259,-0.00330835,0.000511763,0.00301444,-0.000336314,0.00029023,0.000367123,-0.000263343,0.000433192,-0.000722989,-7.9081e-05,0.0017068
694,0.00051179,0.00185021,0.00242294,-0.00837234,0.0447936,0.0447936,0.0447936,0.0447936,0.0447936,0.0447936,0.0447936,0.0447936,0.0447936,-0.794794,0.513921,-0.935746,1.33095,0.00185021,0.00242294,-0.00837234,-0.00608214,0.00174098,-0.00123774,-0.00104762,0.00229055,-0.00204455,0.0447936,0.000973478,-0.00409458,-0.000260346,0.00339703,-5.13352e-05,0.000799622,-0.00408082,0.0022957,5.29271e-05,-0.000426846,0.000102002,0.000678591,-0.00539312,-0.000339452,0.0117746,-0.00608214,0.00174098,-0.00123774,-0.00104762,0.00229055,-0.00204455,0,0,0,0,0,0,0,0,0,-0.000353985,-1.57502e-05,-0.000202529,-0.000416043,-0.000293607,0.000217335,4.81964e-06,8.63498e-05,0.000354864,0.000411662,-6.24243e-05,-2.12693e-06
695,0.00051179,0.0167426,0.00765984,0.0138411,0.0563827,0.0563827,0.0563827,0.0563827,0.0563827,0.0563827,0.0563827,0.0563827,0.0563827,-0.806383,0.270479,-0.46876,0.971158,0.0167426,0.00765984,0.0138411,-0.00706148,0.00372039,0.00150348,0.000458224,-0.00260598,0.000988914,0.0563827,-0.000825211,0.00646605,-0.000241213,-0.00241896,0.00114382,-0.00256152,0.0669041,-0.0243524,0.0283319,0.00623315,-0.00516426,0.0081034,-0.011474,-0.00808107,-0.0888486,-0.00706148,0.00372039,0.00150348,0.000458224,-0.00260598,0.000988914,0,0,0,0,0,0,0,0,0,-0.000473201,-5.53695e-05,-0.000184338,-0.000404757,-0.00028556,0.00021913,0.000128014,-2.30723e-05,0.000354312,0.000394177,-5.46302e-05,-5.13968e-05
696,0.00051179,0.00168969,0.00201169,0.00717364,0.0851056,0.0851056,0.0851056,0.0851056,0.0851056,0.0851056,0.0851056,0.0851056,0.0851056,-0.835106,-0.888347,0.61471,1.36544,0.00168969,0.00201169,0.00717364,0.00202862,-0.00205931,-0.0010149,0.00123258,-0.00305598,0.00609903,0.0851056,0.00161029,-0.00533341,0.000179775,-0.0014325,0.00253067,-0.00040143,0.00529737,0.00111305,0.000210835,-0.00371722,-0.000755479,-0.00925483,0.00313803,-0.000537973,-0.00321619,0.00202862,-0.00205931,-0.0010149,0.00123258,-0.00305598,0.00609903,0,0,0,0,0,0,0,0,0,-0.000386983,5.91373e-06,-0.00048845,-0.000484367,-0.000315959,0.000469654,-5.06376e-06,-6.8895e-05,0.000342041,0.000470204,3.07805e-05,1.55245e-05
697,0.00051179,0.00128704,-0.00309293,0.00171765,0.0570552,0.0570552,0.0570552,0.0570552,0.0570552,0.0570552,0.0570552,0.0570552,0.0570552,-0.91195,-0.165786,0.942945,1.32223,0.00128704,-0.00309293,0.00171765,-0.00404739,-0.000879128,-0.00120194,0.00595235,-0.000959032,0.00394451,0.0570552,0.00130917,-0.00285463,-0.000207745,-0.00160171,0.000211647,0.000260226,0.00394781,0.00135595,2.37357e-05,0.000879198,3.83984e-06,9.20625e-05,0.00381544,-0.00113871,-0.00575752,-0.00404739,-0.000879128,-0.00120194,0.00595235,-0.000959032,0.00394451,0,0,0,0,0,0,0,0,0,-0.000696324,-2.06646e-05,-9.39597e-05,-0.000252961,-0.000337357,8.3091e-05,2.2907e-05,1.5968e-05,0.000318147,0.000243544,-2.55199e-05,7.05555e-06
698,0.00051179,-0.019073,-0.0265132,-0.0212824,0.0932749,0.0932749,0.0932749,0.0932749,0.0932749,0.0932749,0.0932749,0.0932749,0.0932749,-0.843275,-0.772766,-0.0574348,1.14524,-0.019073,-0.0265132,-0.0212824,-0.00554058,0.00251764,-0.00119176,-0.00729439,-0.000936843,-0.00108087,0.0932749,-0.755164,-7.72573,-0.0923316,-0.643172,0.570228,0.485479,2.67507,7.17458,-0.0329294,-0.273903,0.068477,-0.266482,0.943588,0.219628,-2.3873,-0.00554058,0.00251764,-0.00119176,-0.00729439,-0.000936843,-0.00108087,0,0,0,0,0,0,0,0,0,-0.000888668,-0.00313154,-0.000112579,0.0044145,-0.000441963,-0.00078556,0.000470859,0.0011309,0.000508137,0.000428374,-0.000455495,0.00176472
699,0.00051179,0.0191348,0.00455439,-0.0110402,0.0781904,0.0781904,0.0781904,0.0781904,0.0781904,0.0781904,0.0781904,0.0781904,0.0781904,-0.92181,0.0261594,0.352875,0.987389,0.0191348,0.00455439,-0.0110402,0.00357191,-0.00134055,0.000825785,-0.00490725,0.00224831,0.00648495,0.0781904,0.0156431,-0.152612,0.00406814,-0.0420462,0.0195756,-0.020751,0.0370742,0.113901,0.0484631,-0.0184236,-0.00372253,-0.0499027,0.0559155,0.0163475,0.0238687,0.00357191,-0.00134055,0.000825785,-0.00490725,0.00224831,0.00648495,0,0,0,0,0,0,0,0,0,-0.000563763,-2.6981e-06,3.439e-05,-0.000355709,-0.000342185,-7.11414e-06,0.000119006,2.42012e-05,0.00030002,0.000156457,-3.89434e-05,1.53891e-05
700,0.00051179,0.00118361,-0.00489764,-0.0121769,0.085441,0.085441,0.085441,0.085441,0.085441,0.085441,0.085441,0.085441,0.085441,-0.912209,0.914559,0.275751,1.32083,0.00118361,-0.00489764,-0.0121769,-0.0119873,0.00375612,-0.0178459,0.00106674,0.00793917,0.0010815,0.085441,0.0403551,-0.00476156,-0.0272451,0.027217,0.189124,0.0277842,-0.360852,-0.185546,-0.00245883,0.0789123,0.0224454,-0.126658,-0.101232,-0.0262013,0.499687,-0.0119873,0.00375612,-0.0178459,0.00106674,0.00793917,0.0010815,0,0,0,0,0,0,0,0,0,-0.000199847,0.000139698,0.000801675,-0.000571283,-0.000381464,-0.00103656,-9.10192e-06,0.000316356,0.000263497,0.000670666,-1.25104e-05,-0.00012774
701,0.00051179,0.00228581,0.00056097,-0.00604255,0.0710095,0.0710095,0.0710095,0.0710095,0.0710095,0.0710095,0.0710095,0.0710095,0.0710095,-0.82101,0.679316,-0.840073,1.35693,0.00228581,0.00056097,-0.00604255,-0.00672458,-0.000678541,-1.56127e-05,-0.00059924,0.00278703,-0.000429306,0.0710095,0.000553206,0.00469542,-0.000605069,0.00386254,-5.41868e-05,0.000376109,-0.00364437,-0.00692704,2.89511e-05,-0.000290165,-0.000301545,0.00059697,-0.00413334,0.000452813,0.00908995,-0.00672458,-0.000678541,-1.56127e-05,-0.00059924,0.00278703,-0.000429306,0,0,0,0,0,0,0,0,0,-0.000434965,-2.31051e-05,-0.000286617,-0.000453648,-0.000289077,0.000273781,4.90027e-06,0.000116169,0.000331365,0.000457253,-9.13144e-05,7.86925e-06
702,0.00051179,-0.0395755,0.0838986,0.0198581,0.0680168,0.0680168,0.0680168,0.0680168,0.0680168,0.0680168,0.0680168,0.0680168,0.0680168,-0.818017,-0.39418,0.150829,0.920477,-0.0395755,0.0838986,0.0198581,-0.00575358,-0.012335,0.00155716,0.00555933,0.00761105,-0.00227621,0.0680168,0.650901,1.4393,-0.122211,-0.311216,-0.164193,-0.299274,-3.87543,-1.23553,0.161072,0.0970425,0.0868547,0.00560847,0.130275,0.0968281,3.84996,-0.00575358,-0.012335,0.00155716,0.00555933,0.00761105,-0.00227621,0,0,0,0,0,0,0,0,0,-0.000212975,0.00217997,-0.00106746,-0.00207431,-0.000430191,-0.000277999,-0.000212611,0.00070979,0.000282355,-0.000902858,0.000234868,-0.000573007
703,0.00051179,-0.0092275,-0.00402019,0.00822852,0.0927332,0.0927332,0.0927332,0.0927332,0.0927332,0.0927332,0.0927332,0.0927332,0.0927332,-0.907267,0.599702,0.630729,1.25722,-0.0092275,-0.00402019,0.00822852,-0.000269144,-0.000270221,0.000984546,0.00187468,-0.000856266,0.00520154,0.0927332,0.00164504,-0.0266506,-0.000286989,0.0147003,0.000459679,-0.00244115,0.0395703,0.0354184,0.000534518,-0.00263678,-0.000733119,0.00174445,-0.00804337,0.00353545,-0.0495433,-0.000269144,-0.000270221,0.000984546,0.00187468,-0.000856266,0.00520154,0,0,0,0,0,0,0,0,0,-0.000532471,-7.56906e-06,0.000329595,-0.000336093,-0.000332946,-0.000335167,-2.40255e-06,2.51511e-05,0.000292532,0.000321527,-4.10449e-05,2.92364e-05
704,0.00051179,-0.00420619,-0.00097122,0.0013589,0.0597558,0.0597558,0.0597558,0.0597558,0.0597558,0.0597558,0.0597558,0.0597558,0.0597558,-0.940244,-0.714712,0.720455,1.38345,-0.00420619,-0.00097122,0.0013589,-0.000151406,-0.000808772,-0.00108471,0.00606445,0.00993117,0.00238996,0.0597558,0.00138332,-0.0163923,0.000831731,-0.00570126,0.000873396,-0.00144519,0.0275258,0.0197251,0.000373377,-0.000899211,-0.00139881,-7.55985e-05,0.00757169,0.000387467,-0.0288091,-0.000151406,-0.000808772,-0.00108471,0.00606445,0.00993117,0.00238996,0,0,0,0,0,0,0,0,0,-0.00050623,-5.89486e-06,-0.000371331,-0.00035855,-0.000360215,0.000371561,2.01347e-05,3.22917e-05,0.000307001,0.000333252,5.30319e-05,1.83273e-06
705,0.00051179,0.000500562,-0.025345,0.0208338,0.010078,0.010078,0.010078,0.010078,0.010078,0.010078,0.010078,0.010078,0.010078,-0.760078,-0.27611,-0.650751,1.03799,0.000500562,-0.025345,0.0208338,-0.00888362,0.00926545,0.0024207,0.00883241,-0.00429088,0.00387382,0.010078,0.000779942,0.000762779,-0.000572972,0.01796,0.00020009,0.000400167,0.0204401,-0.00146343,0.0135457,0.0275061,-0.00341147,-0.00156243,-0.0201211,-0.00174984,-0.0397114,-0.00888362,0.00926545,0.0024207,0.00883241,-0.00429088,0.00387382,0,0,0,0,0,0,0,0,0,-0.000411496,-5.94396e-05,0.00015504,-0.000323957,-0.000332201,-6.81151e-05,9.29692e-05,-7.20028e-05,0.000387117,0.000352166,-5.02073e-06,-8.30133e-06
706,0.00051179,0.00938725,-0.00134218,0.0191139,0.0789022,0.0789022,0.0789022,0.0789022,0.0789022,0.0789022,0.0789022,0.0789022,0.0789022,-0.921098,-0.651799,0.141574,1.13724,0.00938725,-0.00134218,0.0191139,0.00178795,-0.0136946,0.0111398,-0.00044778,0.00977257,-0.00356415,0.0789022,0.565408,3.4116,0.0511157,-0.161193,-0.473526,-0.0180917,-1.31471,-2.94747,0.0555095,0.220752,0.00675622,0.0406496,-0.0582163,-0.0906754,1.25495,0.00178795,-0.0136946,0.0111398,-0.00044778,0.00977257,-0.00356415,0,0,0,0,0,0,0,0,0,-0.000308998,0.00222673,-0.000331913,0.000425716,-0.00036397,0.000706124,-0.000333943,0.000126394,0.000365861,-0.000495234,3.88941e-05,-0.00108045
707,0.00051179,-0.0209427,-0.0284522,-0.0127724,0.0199093,0.0199093,0.0199093,0.0199093,0.0199093,0.0199093,0.0199093,0.0199093,0.0199093,-0.980091,0.673229,0.112985,1.1944,-0.0209427,-0.0284522,-0.0127724,-0.0286809,0.0178871,0.0384553,0.0441583,-0.00210321,0.0406771,0.0199093,0.410951,2.40192,-0.0491157,-0.0176433,-0.302628,0.0891394,0.0528204,-2.07835,0.0474347,-0.238894,-0.019434,-0.0558351,0.284989,-0.0735722,0.0157871,-0.0286809,0.0178871,0.0384553,0.0441583,-0.00210321,0.0406771,0,0,0,0,0,0,0,0,0,-0.000439577,0.00140254,0.000324551,0.00114291,-0.000276202,-0.000636836,-5.08446e-05,6.41079e-05,0.000368379,0.000133039,-0.00027948,-0.000673285
708,0.00051179,-0.00151222,-0.000120954,0.00230601,0.0533814,0.0533814,0.0533814,0.0533814,0.0533814,0.0533814,0.0533814,0.0533814,0.0533814,-0.946619,-0.410382,0.844587,1.33335,-0.00151222,-0.000120954,0.00230601,-0.00488208,-0.00167434,-0.00200706,0.00778896,0.00199958,0.00329741,0.0533814,0.00106581,-0.00692085,0.000451215,-0.00556803,-0.000518992,-0.000106543,0.0113873,0.00895206,0.000101669,0.0011067,-0.000393815,0.000141206,0.00458228,-0.000865761,-0.0138345,-0.00488208,-0.00167434,-0.00200706,0.00778896,0.00199958,0.00329741,0,0,0,0,0,0,0,0,0,-0.000632957,-2.65883e-05,-0.000211805,-0.000269157,-0.000350291,0.000199574,3.19462e-05,1.5906e-05,0.000312336,0.000248021,1.51568e-07,4.65133e-06
709,0.00051179,-0.0304957,-0.0121746,-0.0269449,0.0207784,0.0207784,0.0207784,0.0207784,0.0207784,0.0207784,0.0207784,0.0207784,0.0207784,-0.979222,0.937974,-0.654576,1.5057,-0.0304957,-0.0121746,-0.0269449,0.0048728,0.00195975,0.00163382,0.000477603,-0.0136103,-0.00558285,0.0207784,-0.000309572,0.0349597,-0.00176766,0.0105711,0.00918983,0.000963237,0.00352018,-0.0136539,-0.000627639,-0.00741758,0.000752524,0.00273359,0.00902101,0.000294298,0.0206911,0.0048728,0.00195975,0.00163382,0.000477603,-0.0136103,-0.00558285,0,0,0,0,0,0,0,0,0,-0.00062608,2.38262e-05,-0.000420876,-0.000639672,-0.00032329,0.000422797,2.59846e-07,7.57415e-05,0.000203818,0.000665643,-0.000204319,-2.54327e-05
710,0.00051179,0.00368627,-0.00762442,0.00417335,0.0779897,0.0779897,0.0779897,0.0779897,0.0779897,0.0779897,0.0779897,0.0779897,0.0779897,-0.82799,-0.805076,-0.637039,1.31891,0.00368627,-0.00762442,0.00417335,-0.00391025,0.00221284,0.00408878,-9.62869e-05,-0.00617087,0.00285112,0.0779897,0.00176944,-0.000168938,-0.000891559,0.00471708,-0.00132509,0.000151377,-0.000147129,-0.00219224,0.00259976,0.0154141,-0.00170173,-0.00415438,-0.0125068,0.00187114,0.000128162,-0.00391025,0.00221284,0.00408878,-9.62869e-05,-0.00617087,0.00285112,0,0,0,0,0,0,0,0,0,-0.000580318,-1.65713e-05,0.000420634,-0.000496201,-0.000344748,-0.000407421,6.65016e-06,-0.00018296,0.00034038,0.000538602,0.000104234,1.7744e-05
711,0.00051179,0.0243771,0.00943863,-0.0295262,0.0666115,0.0666115,0.0666115,0.0666115,0.0666115,0.0666115,0.0666115,0.0666115,0.0666115,-0.680769,0.217164,-0.0333885,0.715348,0.0243771,0.00943863,-0.0295262,-0.0182497,0.0101779,0.00990689,-0.00519095,-0.00102901,0.00306769,0.0666115,-0.384765,-0.556286,-0.286596,-1.41483,-1.3199,0.0219271,-3.60291,1.85181,-0.288549,-0.56598,0.217155,1.16511,1.97137,-0.0986332,2.46732,-0.0182497,0.0101779,0.00990689,-0.00519095,-0.00102901,0.00306769,0,0,0,0,0,0,0,0,0,-0.000776157,-0.00110086,-0.00146882,0.00628712,-0.000482703,-0.00129536,-0.000554483,0.00424152,0.000116594,-0.00596878,-0.00208026,0.000436387
712,0.00051179,0.0291662,0.0294147,0.0134411,0.102913,0.102913,0.102913,0.102913,0.102913,0.102913,0.102913,0.102913,0.102913,-0.897087,0.00208224,0.231173,0.926396,0.0291662,0.0294147,0.0134411,0.000906561,-0.00577524,-0.000458318,0.00114875,0.00384981,0.00578225,0.102913,0.0570297,-0.073229,0.0114709,-0.0307292,0.111124,-0.0308489,-0.336038,-0.0670616,0.0797179,-0.00751778,-0.00968538,-0.137114,0.00883225,-0.00423932,0.459711,0.000906561,-0.00577524,-0.000458318,0.00114875,0.00384981,0.00578225,0,0,0,0,0,0,0,0,0,-0.000516571,0.000127744,1.66589e-05,-0.000394454,-0.000346804,4.02979e-05,0.000242396,-1.96976e-05,0.000309058,8.13822e-05,-3.86581e-05,-0.000154223
713,0.00051179,0.00492173,-0.00304909,5.50887e-05,0.0928406,0.0928406,0.0928406,0.0928406,0.0928406,0.0928406,0.0928406,0.0928406,0.0928406,-0.884048,-0.907159,-0.779757,1.48745,0.00492173,-0.00304909,5.50887e-05,-0.000648219,0.00290556,-0.000217833,0.000511942,0.000370074,-0.000118961,0.0928406,0.00143917,-0.00241956,-0.000822209,0.00286743,-0.00229574,0.00114919,-0.00441007,-0.000206429,-0.00107144,3.6112e-05,-0.000193219,-0.00494988,0.000145551,0.000528503,0.00930487,-0.000648219,0.00290556,-0.000217833,0.000511942,0.000370074,-0.000118961,0,0,0,0,0,0,0,0,0,-0.000545889,3.21514e-06,0.000352314,-0.000522262,-0.000303114,-0.00033148,-3.5371e-06,-0.000122999,0.00029543,0.000531576,0.000124768,1.3081e-06
714,0.00051179,0.00215187,-0.00129729,-0.00188137,0.104145,0.104145,0.104145,0.104145,0.104145,0.104145,0.104145,0.104145,0.104145,-0.854145,-0.818082,-0.810481,1.43377,0.00215187,-0.00129729,-0.00188137,-0.00236271,0.00256591,0.0028027,-0.00171056,0.000129243,0.000986703,0.104145,0.00101186,-0.000220633,-0.000815265,0.00345635,-0.000473252,0.00080926,-0.00741288,-0.00145799,-0.000952067,0.000858185,-0.000350204,0.000117585,-0.00301725,0.00041993,0.00917666,-0.00236271,0.00256591,0.0028027,-0.00171056,0.000129243,0.000986703,0,0,0,0,0,0,0,0,0,-0.000500225,-3.74636e-06,0.00033039,-0.000477981,-0.000309641,-0.000312884,-1.03052e-05,-0.000126709,0.000322565,0.000514101,0.000124499,1.00411e-05
715,0.00051179,0.100855,0.0135338,0.019055,0.0286065,0.0286065,0.0286065,0.0286065,0.0286065,0.0286065,0.0286065,0.0286065,0.0286065,-0.778607,0.633614,0.0438351,1.0048,0.100855,0.0135338,0.019055,0.0062376,-0.00441216,0.000981987,0.0169577,0.0207643,0.0164428,0.0286065,1.21402,11.3956,0.0296554,0.896623,-1.08346,0.71404,2.12355,-10.413,0.170793,-0.36422,-0.00801051,-0.831045,-0.545937,-0.114504,-1.31156,0.0062376,-0.00441216,0.000981987,0.0169577,0.0207643,0.0164428,0,0,0,0,0,0,0,0,0,-9.24319e-05,0.0045898,0.000256999,0.0100015,-0.000315124,-4.56662e-06,-0.000572719,-0.0002367,0.000371128,-0.00285129,0.000364238,-0.00200178
716,0.00051179,0.0715303,-0.0144985,-0.0500374,0.00451728,0.00451728,0.00451728,0.00451728,0.00451728,0.00451728,0.00451728,0.00451728,0.00451728,-0.995483,0.705336,0.0852207,1.22301,0.0715303,-0.0144985,-0.0500374,-0.0289139,0.0195546,0.0215208,0.0455182,0.00348461,0.0420094,0.00451728,0.323202,1.91522,-0.0481904,-0.159643,-0.19723,0.15766,0.543335,-1.78952,0.0403045,-0.200738,-0.0303612,-0.0969769,0.37488,-0.0574522,-0.39632,-0.0289139,0.0195546,0.0215208,0.0455182,0.00348461,0.0420094,0,0,0,0,0,0,0,0,0,-0.00048209,0.00105067,0.000324482,0.00127479,-0.000270123,-0.00061084,8.34204e-06,0.000141106,0.000368647,0.000517013,-0.000409872,-0.000497985
717,0.00051179,0.00173569,0.0125642,-0.000402808,0.113081,0.113081,0.113081,0.113081,0.113081,0.113081,0.113081,0.113081,0.113081,-0.886919,-0.770779,0.0559919,1.17638,0.00173569,0.0125642,-0.000402808,0.00977549,-0.00976539,-0.00354759,0.00308676,0.00135472,0.00504708,0.113081,0.475654,4.26488,0.0724343,0.404446,-0.222556,0.407319,2.08391,-4.04406,0.0256914,0.193817,0.054207,-0.182501,-0.610827,-0.151185,-1.901,0.00977549,-0.00976539,-0.00354759,0.00308676,0.00135472,0.00504708,0,0,0,0,0,0,0,0,0,-0.000347681,0.00200245,-5.30985e-05,0.0032811,-0.000324124,0.000679788,-0.000280806,0.000693521,0.000481382,0.000756619,-0.000137904,-0.00115538
718,0.00051179,-0.00115682,0.00586048,-0.00190754,0.0551844,0.0551844,0.0551844,0.0551844,0.0551844,0.0551844,0.0551844,0.0551844,0.0551844,-0.805184,-0.452173,-0.677424,1.14529,-0.00115682,0.00586048,-0.00190754,-0.00604647,0.00127362,0.00457003,0.00652668,-0.00684623,-0.002045,0.0551844,0.000732616,0.00483879,-0.00086116,0.00572289,-0.00122175,-0.000426058,0.0213636,-0.00246021,0.00659136,0.00433666,-0.00203746,-0.00279886,-0.01592,0.000111125,-0.0166572,-0.00604647,0.00127362,0.00457003,0.00652668,-0.00684623,-0.002045,0,0,0,0,0,0,0,0,0,-0.000438593,-3.33427e-05,0.000270889,-0.000337583,-0.000335122,-0.000266765,5.88168e-05,-0.000112607,0.000369512,0.000379023,2.37699e-05,-1.64428e-05
719,0.00051179,0.00237637,0.00421925,1.8442e-05,0.102466,0.102466,0.102466,0.102466,0.102466,0.102466,0.102466,0.102466,0.102466,-0.852466,-0.200927,0.583192,1.05223,0.00237637,0.00421925,1.8442e-05,-0.00233724,0.00102617,3.19239e-05,-0.00040437,0.000972049,0.00439215,0.102466,0.00156905,-0.0211261,-6.23986e-05,0.00652471,-0.000232179,-0.00148776,0.0267201,0.0189819,-0.00173579,-0.00271591,-0.000486334,0.000588509,-0.00802805,0.00309482,-0.0273271,-0.00233724,0.00102617,3.19239e-05,-0.00040437,0.000972049,0.00439215,0,0,0,0,0,0,0,0,0,-0.000610881,-9.124e-06,-0.000142482,-0.00020676,-0.000336939,0.000152119,-1.59838e-05,3.4317e-05,0.000325374,0.000192202,-2.94599e-05,3.21518e-05
720,0.00051179,-0.00385698,0.0150727,-0.0462207,0.0172752,0.0172752,0.0172752,0.0172752,0.0172752,0.0172752,0.0172752,0.0172752,0.0172752,-0.982725,-0.0406238,-0.324561,1.03573,-0.00385698,0.0150727,-0.0462207,-0.0100378,0.0020019,-0.00931417,0.00578189,-0.00857668,-0.000267394,0.0172752,-0.0298926,0.0908182,0.00326753,0.0234844,-0.0442922,-0.0232161,-0.0203978,-0.042669,-0.0327071,0.0159335,0.00151405,-0.0352641,-0.0544906,-0.00174679,0.101883,-0.0100378,0.0020019,-0.00931417,0.00578189,-0.00857668,-0.000267394,0,0,0,0,0,0,0,0,0,-0.000502206,-0.000120187,1.42755e-05,-0.00039563,-0.000321651,3.84189e-05,-5.51608e-05,-3.15853e-05,0.000319928,7.03279e-05,-3.90409e-05,6.93942e-05
721,0.00051179,-0.00332778,-0.00461245,-0.003789,0.0585466,0.0585466,0.0585466,0.0585466,0.0585466,0.0585466,0.0585466,0.0585466,0.0585466,-0.941453,0.865023,-0.682972,1.4495,-0.00332778,-0.00461245,-0.003789,0.000273664,-0.00138596,0.00181236,-8.46517e-05,-0.00985257,-0.000944934,0.0585466,0.000550106,0.0136819,-0.001675,0.0112342,0.00409464,0.000681736,-0.000697823,-0.0144488,-0.000369119,-0.0102293,0.000590307,0.000655876,0.00360754,-0.000582147,0.00383094,0.000273664,-0.00138596,0.00181236,-8.46517e-05,-0.00985257,-0.000944934,0,0,0,0,0,0,0,0,0,-0.00057815,5.45395e-06,-0.000404611,-0.00058024,-0.000310773,0.000374001,-9.33757e-07,9.59048e-05,0.000242464,0.000605181,-0.000188527,-6.30031e-06
722,0.00051179,0.0293722,0.000157163,0.00125013,0.0825015,0.0825015,0.0825015,0.0825015,0.0825015,0.0825015,0.0825015,0.0825015,0.0825015,-0.917499,-0.353084,0.320494,1.03402,0.0293722,0.000157163,0.00125013,0.00254362,-0.000911558,0.00346018,-4.72188e-05,0.00313604,-0.000982586,0.0825015,0.0642704,-0.589305,-0.00607603,0.0373122,0.00577264,-0.0567013,0.109548,0.554161,0.0302578,0.148266,0.0220918,-0.03311,-0.185736,0.0348748,-0.0776881,0.00254362,-0.000911558,0.00346018,-4.72188e-05,0.00313604,-0.000982586,0,0,0,0,0,0,0,0,0,-0.000505798,0.000183012,-0.000280022,-0.000454614,-0.000379944,0.000210147,-4.90309e-09,0.000243272,0.000305936,-7.77975e-05,9.00636e-06,1.84031e-05
723,0.00051179,-0.000171423,-0.0328636,-0.00179167,0.0211448,0.0211448,0.0211448,0.0211448,0.0211448,0.0211448,0.0211448,0.0211448,0.0211448,-0.978855,0.790017,-0.094076,1.2614,-0.000171423,-0.0328636,-0.00179167,0.0373768,-0.00994573,0.0130444,-0.0393204,-0.00828382,-0.0268298,0.0211448,-0.308225,-2.37692,0.064043,0.339141,0.143228,0.196882,0.132588,2.23386,0.00510578,0.0960629,-0.0388042,-0.0184291,-0.40234,0.0882459,-0.112367,0.0373768,-0.00994573,0.0130444,-0.0393204,-0.00828382,-0.0268298,0,0,0,0,0,0,0,0,0,-0.000722684,-0.00107311,-0.000278185,0.00123572,-0.000282848,0.000819158,0.000110058,2.96403e-05,0.000335231,0.000863547,-0.00050052,0.000588211
724,0.00051179,0.010906,-0.00877151,0.00467463,0.00805791,0.00805791,0.00805791,0.00805791,0.00805791,0.00805791,0.00805791,0.00805791,0.00805791,-0.758058,0.702604,0.973281,1.41971,0.010906,-0.00877151,0.00467463,0.0129974,-0.0157948,-0.00964572,0.00688247,0.00714551,0.00676092,0.00805791,0.00065656,-0.00623059,-0.000378303,0.00230561,-3.00948e-05,0.000259984,-5.05419e-05,-0.00464531,-0.00130211,0.000955984,-7.34255e-06,-0.000253449,0.00550991,-0.0010674,-0.00437064,0.0129974,-0.0157948,-0.00964572,0.00688247,0.00714551,0.00676092,0,0,0,0,0,0,0,0,0,-0.000628076,3.9507e-05,0.000211515,-0.000358197,-0.000361169,-0.000373246,-8.61121e-07,7.08985e-05,0.000349239,0.00026434,4.83153e-07,-2.95317e-07
725,0.00051179,0.00582205,-0.00614451,0.00505754,0.0490141,0.0490141,0.0490141,0.0490141,0.0490141,0.0490141,0.0490141,0.0490141,0.0490141,-0.799014,0.726394,0.943268,1.43381,0.00582205,-0.00614451,0.00505754,0.0105687,-0.00489035,0.00119004,0.00584865,0.00503354,0.00720543,0.0490141,0.000954881,-0.00410997,-0.000349067,0.0003997,-0.000161852,0.000380468,-0.00130091,-0.00155023,-0.00122787,0.00092408,-0.000297721,-0.000283571,0.00482074,-0.000955757,-0.00347307,0.0105687,-0.00489035,0.00119004,0.00584865,0.00503354,0.00720543,0,0,0,0,0,0,0,0,0,-0.000613287,3.17786e-05,0.000221855,-0.000387188,-0.000350351,-0.000274249,-2.73537e-06,6.42887e-05,0.000334546,0.000402893,-1.69305e-05,5.40912e-06
726,0.00051179,-0.000609159,0.00757897,0.0251443,0.0923689,0.0923689,0.0923689,0.0923689,0.0923689,0.0923689,0.0923689,0.0923689,0.0923689,-0.842369,-0.347458,0.252586,0.945575,-0.000609159,0.00757897,0.0251443,0.00108521,-0.0143626,-0.00662127,0.00489362,0.00735965,0.00177379,0.0923689,0.0843852,-1.42279,-0.0108443,0.171995,0.00584329,-0.0945732,0.652726,1.41756,0.0244952,0.243805,0.0386989,-0.0518843,-0.42338,0.0792161,-0.625987,0.00108521,-0.0143626,-0.00662127,0.00489362,0.00735965,0.00177379,0,0,0,0,0,0,0,0,0,-0.000445016,0.000201372,-0.000452066,-0.00106711,-0.000384653,0.000199996,-7.90357e-05,0.000345752,0.000298232,5.51674e-05,0.000114834,0.00017897
727,0.00051179,0.0159942,0.00107082,0.0176799,0.0440456,0.0440456,0.0440456,0.0440456,0.0440456,0.0440456,0.0440456,0.0440456,0.0440456,-0.794046,-0.456336,-0.52643,1.05635,0.0159942,0.00107082,0.0176799,-0.00931607,0.0022556,0.00526126,0.00719388,-0.00244066,0.00253949,0.0440456,-1.61976e-05,-0.00912199,-0.000797741,0.00386789,0.00105173,-0.000768233,0.0298233,-0.00792391,0.0181426,0.0177026,-0.00535304,-0.00208916,-0.0226413,-0.00498814,-0.0454141,-0.00931607,0.0022556,0.00526126,0.00719388,-0.00244066,0.00253949,0,0,0,0,0,0,0,0,0,-0.000492789,-6.23024e-05,0.000306601,-0.000379828,-0.000355953,-0.000292023,0.000111041,-0.000105458,0.000370629,0.000424758,2.75206e-05,-2.78842e-05
728,0.00051179,-0.000985414,-0.00683383,0.008515,0.0138535,0.0138535,0.0138535,0.0138535,0.0138535,0.0138535,0.0138535,0.0138535,0.0138535,-0.986146,0.520625,-0.903822,1.43542,-0.000985414,-0.00683383,0.008515,-0.00251391,-0.000443995,0.0019533,-0.0112672,-0.00544458,0.00204278,0.0138535,0.00113173,-0.00448027,-0.00105786,0.00548077,0.000211755,0.00157769,-0.00729671,0.00525393,-0.00131896,0.00150307,0.000259342,0.000405481,-0.000150019,-0.00201182,-0.00162377,-0.00251391,-0.000443995,0.0019533,-0.0112672,-0.00544458,0.00204278,0,0,0,0,0,0,0,0,0,-0.000367977,9.17075e-06,-0.000216369,-0.000387697,-0.000330592,0.000201351,-4.68494e-05,6.84074e-05,0.000274599,0.000423007,-0.00012026,1.62364e-05
729,0.00051179,0.086452,0.0894182,0.178596,0.0080399,0.0080399,0.0080399,0.0080399,0.0080399,0.0080399,0.0080399,0.0080399,0.0080399,-0.75804,-0.755867,0.187685,1.08682,0.086452,0.0894182,0.178596,-0.0671002,0.0454542,-0.214135,-0.0370742,-0.0501058,0.148977,0.0080399,0.0401967,-5.51349,0.0223634,-1.46224,-0.0580274,-0.0849709,7.54334,5.48506,-0.0594926,-0.156755,-0.0813876,0.223021,1.52957,0.249309,-7.94496,-0.0671002,0.0454542,-0.214135,-0.0370742,-0.0501058,0.148977,0,0,0,0,0,0,0,0,0,-6.7085e-05,-0.000451613,-0.000269023,-0.0044841,-0.000162596,0.000947199,-0.00079993,-0.000643971,0.000324912,0.00149304,-0.000670963,0.00167434
730,0.00051179,-0.00188248,-0.00417317,0.00336425,0.0498346,0.0498346,0.0498346,0.0498346,0.0498346,0.0498346,0.0498346,0.0498346,0.0498346,-0.950165,0.313136,-0.919103,1.35854,-0.00188248,-0.00417317,0.00336425,-0.00429639,-0.00101899,0.000994962,-0.0108711,-0.00287592,0.000184843,0.0498346,0.00121738,-0.00467137,-0.000799112,0.00426024,9.00916e-05,0.00137155,-0.00466939,0.00646375,-0.00148319,0.0015065,0.000121511,0.000253688,-0.00159357,-0.00164476,0.00105145,-0.00429639,-0.00101899,0.000994962,-0.0108711,-0.00287592,0.000184843,0,0,0,0,0,0,0,0,0,-0.000324585,4.09707e-06,-0.000142909,-0.00033778,-0.000315959,0.000124728,-4.22791e-05,4.41794e-05,0.000307515,0.000361445,-7.17235e-05,1.21926e-05
731,0.00051179,-0.00296855,0.0185251,0.000206947,0.045269,0.045269,0.045269,0.045269,0.045269,0.045269,0.045269,0.045269,0.045269,-0.795269,0.0858927,-0.112319,0.807741,-0.00296855,0.0185251,0.000206947,-0.0280939,-0.00989068,0.0297485,0.010476,0.00339406,0.0128605,0.045269,-0.246561,-1.72736,-0.0817719,-0.5294,-0.952408,-0.0386107,-1.46317,2.68274,-0.191691,-0.175009,-0.0291807,-0.195771,0.685884,0.00180674,1.65874,-0.0280939,-0.00989068,0.0297485,0.010476,0.00339406,0.0128605,0,0,0,0,0,0,0,0,0,-0.00066974,-0.000864195,-0.000491496,7.4204e-05,-0.000372166,-0.00042513,-0.000396995,-0.00010862,0.000361338,-0.000162826,-0.000149246,0.000582416
732,0.00051179,0.00198446,-0.000162619,-0.00543988,0.110076,0.110076,0.110076,0.110076,0.110076,0.110076,0.110076,0.110076,0.110076,-0.860076,0.86413,-0.79409,1.455,0.00198446,-0.000162619,-0.00543988,-0.00181993,-0.00198796,0.00097689,0.000252144,-0.00232704,0.00109195,0.110076,0.00126387,0.000696736,-0.000776075,0.00184988,0.000585159,0.000910021,-0.00597865,-0.00326636,-0.000592308,-0.00245508,0.00012143,0.00232937,0.000767816,0.000709828,0.00908916,-0.00181993,-0.00198796,0.00097689,0.000252144,-0.00232704,0.00109195,0,0,0,0,0,0,0,0,0,-0.000515081,-3.82517e-06,-0.000335675,-0.000548828,-0.000295127,0.000308035,-2.74568e-06,0.000115669,0.000290424,0.000567697,-0.000137725,7.96401e-06
733,0.00051179,-0.00403768,0.00243172,-0.00721096,0.0347569,0.0347569,0.0347569,0.0347569,0.0347569,0.0347569,0.0347569,0.0347569,0.0347569,-0.784757,0.0772422,0.434898,0.900526,-0.00403768,0.00243172,-0.00721096,0.00064797,0.00040375,0.00447543,0.00305703,-0.00300057,-0.00505109,0.0347569,0.000416473,-0.0231405,3.70815e-05,0.00280606,0.000186299,-0.00315433,0.0663754,0.0269919,-0.0106932,-0.0220884,-0.00112416,-0.0038733,0.0168507,0.00543832,-0.0552911,0.00064797,0.00040375,0.00447543,0.00305703,-0.00300057,-0.00505109,0,0,0,0,0,0,0,0,0,-0.000588901,1.24582e-05,7.08616e-05,-0.00027179,-0.000344658,-6.64533e-05,-3.1045e-05,-1.57262e-05,0.000329375,0.000285001,-2.55211e-05,9.07214e-06
734,0.00051179,0.0270036,0.00699101,0.00729322,0.110924,0.110924,0.110924,0.110924,0.110924,0.110924,0.110924,0.110924,0.110924,-0.889076,-0.755795,0.307718,1.2068,0.0270036,0.00699101,0.00729322,-0.00219063,0.000803053,0.000392731,-0.000346303,-0.00712792,0.00538816,0.110924,0.0630161,-0.632522,0.020049,-0.093311,-0.0538551,-0.0501269,0.0559384,0.659374,-0.0202888,-0.0486385,-0.0219036,0.114713,0.134958,0.0384555,-0.177945,-0.00219063,0.000803053,0.000392731,-0.000346303,-0.00712792,0.00538816,0,0,0,0,0,0,0,0,0,-0.000314914,0.000207165,-0.000595656,-0.000685386,-0.000309134,0.000804177,-0.000200138,-0.00021183,0.000303909,0.000188044,-7.84854e-05,0.000122256
735,0.00051179,-0.0247092,-0.0117687,-0.004089,0.116991,0.116991,0.116991,0.116991,0.116991,0.116991,0.116991,0.116991,0.116991,-0.883009,0.852921,-0.201822,1.24415,-0.0247092,-0.0117687,-0.004089,-0.00495402,-0.00242031,0.0164806,0.00621823,0.00161319,-0.0081989,0.116991,-0.269615,-0.277842,0.0705048,0.0659633,0.0491324,-0.0646784,-1.64627,0.253419,-0.010206,0.0805133,0.0450831,0.0557177,-0.134708,0.0494467,1.59464,-0.00495402,-0.00242031,0.0164806,0.00621823,0.00161319,-0.0081989,0,0,0,0,0,0,0,0,0,-0.000921652,-0.00109903,-0.000479846,-0.000833393,-0.000156606,0.00116069,0.000253879,0.000288279,0.000290006,0.000351415,0.000178683,0.000480057
736,0.00051179,0.00484143,-0.00419539,0.00487169,0.0859314,0.0859314,0.0859314,0.0859314,0.0859314,0.0859314,0.0859314,0.0859314,0.0859314,-0.914069,-0.851905,0.552232,1.3661,0.00484143,-0.00419539,0.00487169,0.000338469,-0.00158743,-0.00188975,0.00135312,0.00636649,0.0073208,0.0859314,0.00243546,-0.00659223,0.00140703,-0.0230124,0.00299591,-0.00205858,0.0219761,-0.00124511,0.00142167,0.00959564,-0.00211486,-0.0119218,0.0176121,0.00144252,-0.014926,0.000338469,-0.00158743,-0.00188975,0.00135312,0.00636649,0.0073208,0,0,0,0,0,0,0,0,0,-0.000376083,-2.64425e-06,-0.000532948,-0.000474986,-0.000351781,0.000531144,-2.63991e-06,-2.83561e-05,0.000306189,0.000435503,7.08724e-05,2.73027e-05
737,0.00051179,-0.000265048,-0.00381614,-0.000943234,0.0766112,0.0766112,0.0766112,0.0766112,0.0766112,0.0766112,0.0766112,0.0766112,0.0766112,-0.911134,0.5849,-0.923389,1.423,-0.000265048,-0.00381614,-0.000943234,-0.00297538,-0.000269577,0.0015784,-0.00597495,-0.00225544,0.000965171,0.0766112,0.00120415,-0.00391709,-0.000686042,0.00275223,-0.000314771,0.000996254,-0.00294876,0.00449691,-0.000848936,0.00135156,7.5602e-05,1.60338e-05,-0.000287658,-0.00142581,0.00387596,-0.00297538,-0.000269577,0.0015784,-0.00597495,-0.00225544,0.000965171,0,0,0,0,0,0,0,0,0,-0.000373758,1.59278e-06,-0.000227535,-0.000414571,-0.000318849,0.000217979,-2.36705e-05,8.43712e-05,0.000299513,0.000440318,-0.00010617,8.14577e-06
738,0.00051179,0.00377544,-0.00283192,0.00318804,0.120144,0.120144,0.120144,0.120144,0.120144,0.120144,0.120144,0.120144,0.120144,-0.879856,-0.847614,0.528171,1.331,0.00377544,-0.00283192,0.00318804,0.000691408,-0.00179531,-0.000937764,0.000484049,-0.0011618,0.00627114,0.120144,0.00231136,-0.00104099,0.00108428,-0.0230006,0.00331305,-0.00124168,0.0268576,-0.0060475,0.000227226,0.00115881,-0.00240402,-0.0116793,0.0246737,0.00124047,-0.0183663,0.000691408,-0.00179531,-0.000937764,0.000484049,-0.0011618,0.00627114,0,0,0,0,0,0,0,0,0,-0.000366971,2.06119e-06,-0.000546959,-0.000474071,-0.000332201,0.000539849,-9.3963e-06,-8.0848e-05,0.000321008,0.000452276,4.51898e-05,2.46053e-05
739,0.00051179,0.00584325,0.00910958,-0.00403575,0.0863197,0.0863197,0.0863197,0.0863197,0.0863197,0.0863197,0.0863197,0.0863197,0.0863197,-0.83632,0.435479,-0.545237,1.0892,0.00584325,0.00910958,-0.00403575,-0.00509466,0.0016053,0.00351335,0.00496971,0.00207497,-0.00302136,0.0863197,0.000432625,0.0137911,-0.000911109,0.00896832,0.000588604,-0.00272653,0.0523409,-0.0202229,0.0167568,-0.0126088,-0.00235664,0.010214,-0.00546912,-0.0035601,-0.0585191,-0.00509466,0.0016053,0.00351335,0.00496971,0.00207497,-0.00302136,0,0,0,0,0,0,0,0,0,-0.000482,-3.54059e-05,-0.00028623,-0.000365939,-0.000275398,0.000293172,9.65367e-05,5.35443e-05,0.000337273,0.000373807,-5.6361e-05,-4.50031e-05
740,0.00051179,-0.0337727,-0.000663146,-0.0207962,0.108763,0.108763,0.108763,0.108763,0.108763,0.108763,0.108763,0.108763,0.108763,-0.891237,-0.479063,-0.221433,1.03578,-0.0337727,-0.000663146,-0.0207962,-0.00482,-0.00107446,0.0186423,0.00198131,-0.00882525,-0.00456399,0.108763,-0.320759,0.570944,0.0275362,-0.0375638,0.222447,-0.203882,-1.03849,-0.759619,-0.0557874,-0.108602,0.0291288,0.121775,0.146829,-0.0612605,0.937512,-0.00482,-0.00107446,0.0186423,0.00198131,-0.00882525,-0.00456399,0,0,0,0,0,0,0,0,0,-0.000715755,-0.00111419,0.000493433,-0.00134159,-0.000328833,-0.000228816,0.000244673,0.000116332,0.000311837,-0.0005108,8.67035e-05,0.000184581
741,0.00051179,-0.00439429,-0.0182779,-0.0171021,0.0512703,0.0512703,0.0512703,0.0512703,0.0512703,0.0512703,0.0512703,0.0512703,0.0512703,-0.80127,0.854441,-0.241181,1.19594,-0.00439429,-0.0182779,-0.0171021,-0.0332256,0.0148759,-0.0108557,0.0194608,0.0511939,-0.0104077,0.0512703,-0.0334757,1.52379,0.019781,-0.517731,-0.021902,-0.0502319,1.04276,-1.4975,0.029642,-0.282509,0.0665903,-0.0516342,0.818518,-0.0279393,-0.974025,-0.0332256,0.0148759,-0.0108557,0.0194608,0.0511939,-0.0104077,0,0,0,0,0,0,0,0,0,-0.000921637,-0.000268954,-0.000516733,-0.00173649,-9.1875e-05,0.000863303,0.000310066,0.000748547,0.000338666,0.00112561,0.000429296,-0.000127182
742,0.00051179,-0.00454264,-0.00269564,0.00796592,0.0391145,0.0391145,0.0391145,0.0391145,0.0391145,0.0391145,0.0391145,0.0391145,0.0391145,-0.960885,-0.865764,0.739672,1.48995,-0.00454264,-0.00269564,0.00796592,-0.00130468,0.000764452,-0.00145482,0.0041095,0.0113156,0.00838313,0.0391145,0.00177915,-0.0140169,0.000540681,-0.00444417,0.00319424,-0.00103477,0.0196241,0.0153653,0.00045575,0.00335406,-0.00068322,-0.00843071,0.00378576,-0.000904843,-0.0191593,-0.00130468,0.000764452,-0.00145482,0.0041095,0.0113156,0.00838313,0,0,0,0,0,0,0,0,0,-0.000455134,-1.20715e-05,-0.000398971,-0.00044479,-0.000369811,0.000412023,8.3824e-06,4.65756e-05,0.00028985,0.000419894,5.9748e-05,2.29476e-05
743,0.00051179,0.0174876,-0.00581746,-0.0180748,0.0459284,0.0459284,0.0459284,0.0459284,0.0459284,0.0459284,0.0459284,0.0459284,0.0459284,-0.954072,-0.883849,0.361765,1.34993,0.0174876,-0.00581746,-0.0180748,-0.00588989,-0.00364367,-0.00402752,0.00184638,0.0173816,0.000672401,0.0459284,0.0113918,0.00445681,0.0165576,-0.060534,0.0561532,0.00227004,0.0286097,-0.0780976,0.000220252,-0.0170171,-0.0129242,-0.0472631,0.0833685,0.00256927,0.0367283,-0.00588989,-0.00364367,-0.00402752,0.00184638,0.0173816,0.000672401,0,0,0,0,0,0,0,0,0,-0.000261381,1.50361e-05,-0.000795748,-0.000490903,-0.000366623,0.000924888,-2.14013e-06,-0.00012574,0.000279665,0.000473328,0.000170314,3.73505e-06
744,0.00051179,-0.00994119,-0.00808799,-0.00379339,0.0925122,0.0925122,0.0925122,0.0925122,0.0925122,0.0925122,0.0925122,0.0925122,0.0925122,-0.907488,-0.608153,-0.425112,1.17222,-0.00994119,-0.00808799,-0.00379339,-0.00615299,0.000388823,0.000630816,0.000119869,-0.00117248,-0.00243581,0.0925122,-0.0206524,0.312226,-0.0028243,0.0217325,0.0240109,-0.0247363,0.232442,-0.326296,0.00517388,-0.0172178,-0.0067562,0.0290651,0.0035733,-0.0202779,-0.257714,-0.00615299,0.000388823,0.000630816,0.000119869,-0.00117248,-0.00243581,0,0,0,0,0,0,0,0,0,-0.000587329,-8.29976e-05,0.000454175,-0.000475006,-0.00033989,-0.00047853,7.7498e-05,-0.000148096,0.000318468,0.000233952,6.8809e-05,-6.25394e-05
745,0.00051179,-0.0308672,-0.0276892,-0.0142758,0.0165196,0.0165196,0.0165196,0.0165196,0.0165196,0.0165196,0.0165196,0.0165196,0.0165196,-0.966806,0.98348,-0.305342,1.41251,-0.0308672,-0.0276892,-0.0142758,-0.000763395,-0.00179268,-0.0404996,0.0124323,-0.0308401,-0.0201442,0.0165196,0.0262289,-0.382865,0.00552023,0.0184236,-0.242435,0.0652781,-0.255515,0.656168,-0.000313329,0.0149939,0.00692216,-0.206972,-0.00572831,0.0390295,0.476762,-0.000763395,-0.00179268,-0.0404996,0.0124323,-0.0308401,-0.0201442,0,0,0,0,0,0,0,0,0,-0.000925668,6.21699e-05,-0.00100122,-0.000839358,-0.000274474,0.00103849,-4.56234e-06,0.000140646,0.000178643,0.00108714,-0.000379826,2.9269e-05
746,0.00051179,-0.000592828,0.0127656,0.0411796,0.0249663,0.0249663,0.0249663,0.0249663,0.0249663,0.0249663,0.0249663,0.0249663,0.0249663,-0.975034,-0.549195,-0.0413096,1.11983,-0.000592828,0.0127656,0.0411796,0.0271735,-0.00033178,-0.0154242,-0.0102626,-0.0174265,-0.0062244,0.0249663,-0.166251,-1.63547,0.00516284,0.067421,0.196286,0.160802,1.0398,1.43978,-0.0113544,-0.0935918,-0.0223335,-0.323561,0.0134052,0.0436729,-0.757417,0.0271735,-0.00033178,-0.0154242,-0.0102626,-0.0174265,-0.0062244,0,0,0,0,0,0,0,0,0,-0.000626259,-0.000553181,0.000134205,0.000958426,-0.000356579,-8.58944e-05,3.41223e-05,-0.000429676,0.000463411,0.000495349,3.20755e-05,0.00032945
747,0.00051179,-0.0157392,0.00990745,-0.00237429,0.0517671,0.0517671,0.0517671,0.0517671,0.0517671,0.0517671,0.0517671,0.0517671,0.0517671,-0.948233,0.85727,0.0401857,1.27893,-0.0157392,0.00990745,-0.00237429,-0.0211423,0.00372926,-0.00234783,-0.00217471,-0.0220825,-0.000457436,0.0517671,0.18327,1.60845,-0.0466369,-0.243836,0.043234,0.418411,1.50383,-1.63594,0.0122977,-0.134323,-0.056464,0.158054,0.368252,-0.068785,-1.65951,-0.0211423,0.00372926,-0.00234783,-0.00217471,-0.0220825,-0.000457436,0,0,0,0,0,0,0,0,0,-0.000474282,0.000691784,0.000219208,0.00246669,-0.000304872,-0.000648284,-6.8241e-05,-0.000547949,0.000380732,0.00169394,-0.000237516,-0.000465069
748,0.00051179,0.00925636,0.0143682,-0.0352235,0.0668219,0.0668219,0.0668219,0.0668219,0.0668219,0.0668219,0.0668219,0.0668219,0.0668219,-0.816822,-0.553463,-0.0611329,0.988563,0.00925636,0.0143682,-0.0352235,-0.0296468,-0.0109267,0.0225154,-0.010196,-0.0114024,-0.0277346,0.0668219,-1.01374,-10.2523,0.096458,1.43006,0.834438,0.360888,1.52854,9.40857,-0.140427,-0.237532,-0.0270915,-0.474126,-1.2069,0.17017,-1.01919,-0.0296468,-0.0109267,0.0225154,-0.010196,-0.0114024,-0.0277346,0,0,0,0,0,0,0,0,0,-0.000975177,-0.00400359,0.000512351,0.00502932,-0.00033992,0.000342962,0.000460246,-0.000263058,0.000429183,-0.00119529,-0.000121881,0.00192554
749,0.00051179,-0.0427065,-0.0326918,-0.0322267,0.00457683,0.00457683,0.00457683,0.00457683,0.00457683,0.00457683,0.00457683,0.00457683,0.00457683,-0.995423,0.489149,-0.235167,1.13377,-0.0427065,-0.0326918,-0.0322267,0.028357,0.0171767,0.031729,-0.0107546,0.0310843,0.00181246,0.00457683,-0.289412,-0.266352,-0.0360413,0.0410802,0.195369,-0.114826,-0.493774,0.113689,-0.0485298,0.0296467,-0.0215966,0.0426728,-0.0380351,0.000492197,0.483328,0.028357,0.0171767,0.031729,-0.0107546,0.0310843,0.00181246,0,0,0,0,0,0,0,0,0,-0.000602566,-0.000938312,-0.000359674,-0.000382519,-0.000309849,0.000171028,7.05412e-05,0.000128562,0.000334516,-0.000448446,-3.3685e-05,0.000378486
750,0.00051179,-0.00658748,-0.00228347,-0.000642879,0.0174652,0.0174652,0.0174652,0.0174652,0.0174652,0.0174652,0.0174652,0.0174652,0.0174652,-0.982535,-0.561068,-0.84352,1.41128,-0.00658748,-0.00228347,-0.000642879,-0.0027119,0.000769258,0.00145149,-0.0115335,0.00482934,0.00337119,0.0174652,-0.00101291,0.0175272,-0.00154927,0.00866855,-0.000680578,0.000758354,0.0040278,-0.0102591,-0.00212646,2.70583e-05,-0.000217768,-0.00248372,-0.00641214,-0.00239638,-0.000901194,-0.0027119,0.000769258,0.00145149,-0.0115335,0.00482934,0.00337119,0,0,0,0,0,0,0,0,0,-0.00040558,3.10522e-07,0.000273015,-0.000377445,-0.000275278,-0.000280815,-4.93651e-05,-6.04706e-05,0.000294439,0.000399543,0.000106586,2.38086e-05
751,0.00051179,0.0105011,-0.00260012,0.0192792,0.043995,0.043995,0.043995,0.043995,0.043995,0.043995,0.043995,0.043995,0.043995,-0.956005,0.0983486,-0.494307,1.08072,0.0105011,-0.00260012,0.0192792,-0.00145141,-0.000753677,0.00218108,0.00402169,-0.00546328,-0.000276461,0.043995,-0.00822191,0.0949673,-0.000169925,-0.0264757,-0.000743202,-0.0122175,0.0546249,-0.104725,-0.0102358,0.0130342,-0.00493891,-0.0044917,0.0160416,-0.0070585,-0.0694124,-0.00145141,-0.000753677,0.00218108,0.00402169,-0.00546328,-0.000276461,0,0,0,0,0,0,0,0,0,-0.000438407,-2.15716e-05,-6.12396e-05,-0.000361112,-0.000312472,5.20035e-05,-4.2754e-06,-7.7216e-05,0.000318833,0.000260747,-2.68059e-05,-9.87977e-06
752,0.00051179,-0.00125979,0.00271745,-0.0051385,0.0792705,0.0792705,0.0792705,0.0792705,0.0792705,0.0792705,0.0792705,0.0792705,0.0792705,-0.829271,0.66913,-0.754245,1.30549,-0.00125979,0.00271745,-0.0051385,-0.0070479,-0.000950007,-0.000293713,0.000461075,0.00371838,-0.000931785,0.0792705,0.000591949,0.00648422,-0.000729434,0.00537397,-0.000112082,-0.000160672,-0.00114798,-0.00511234,0.00121541,-0.00463883,-0.00057564,0.00148155,-0.00345259,0.000936959,0.00480492,-0.0070479,-0.000950007,-0.000293713,0.000461075,0.00371838,-0.000931785,0,0,0,0,0,0,0,0,0,-0.00047081,-2.67709e-05,-0.00032238,-0.000459382,-0.000281597,0.000305586,1.38912e-05,0.000118411,0.000329167,0.000454839,-8.69832e-05,5.53466e-06
753,0.00051179,-0.00229764,-0.00408202,0.00746833,0.012645,0.012645,0.012645,0.012645,0.012645,0.012645,0.012645,0.012645,0.012645,-0.987355,0.739995,-0.980297,1.57589,-0.00229764,-0.00408202,0.00746833,-0.0032093,0.0013597,0.00324813,-0.00708505,-0.00901629,0.00334657,0.012645,0.0036052,-0.0192817,-0.000554197,0.000980286,-6.26669e-05,0.000369977,-0.00265007,0.021642,-0.000277491,0.00327672,0.000253391,-0.000281343,-0.000174986,-0.00183713,-0.00453692,-0.0032093,0.0013597,0.00324813,-0.00708505,-0.00901629,0.00334657,0,0,0,0,0,0,0,0,0,-0.000384964,8.2763e-06,-0.00023929,-0.000506799,-0.00034588,0.000247345,-3.05159e-05,9.13357e-05,0.000239916,0.00054298,-0.000178965,1.38439e-05
754,0.00051179,-0.00510406,-0.0631157,0.0171485,0.0303249,0.0303249,0.0303249,0.0303249,0.0303249,0.0303249,0.0303249,0.0303249,0.0303249,-0.824587,-0.969675,-0.145242,1.28114,-0.00510406,-0.0631157,0.0171485,-0.0492821,0.0152873,-0.0351029,-0.0017153,-0.0524659,0.00487584,0.0303249,-0.492784,-2.22981,-0.066731,-0.258738,-1.85675,0.0412072,-3.75802,4.09166,-0.00293721,-0.0367385,-0.0346555,-0.875152,0.358592,0.394251,4.61602,-0.0492821,0.0152873,-0.0351029,-0.0017153,-0.0524659,0.00487584,0,0,0,0,0,0,0,0,0,-0.00111777,-0.00254003,0.00135233,-0.00119513,-0.000611449,-0.00186676,0.000147036,-0.000541795,0.000472076,0.00125618,-0.000329419,0.00216593
755,0.00051179,-0.00119619,-0.00115632,-0.0128756,0.0368388,0.0368388,0.0368388,0.0368388,0.0368388,0.0368388,0.0368388,0.0368388,0.0368388,-0.840624,0.949136,-0.963161,1.59223,-0.00119619,-0.00115632,-0.0128756,-0.003013,-0.00134487,-0.00085533,-0.0016691,-0.000476763,0.00183929,0.0368388,0.00178672,-0.0124463,-0.000240348,0.00148407,0.0021164,0.000403546,-0.000940108,0.011526,1.74474e-05,0.000623912,0.000277203,0.00142769,-0.000951668,-0.000583284,0.012388,-0.003013,-0.00134487,-0.00085533,-0.0016691,-0.000476763,0.00183929,0,0,0,0,0,0,0,0,0,-0.000447206,-4.25995e-06,-0.000277666,-0.000581139,-0.000309939,0.000261814,-6.3868e-06,0.000120363,0.000290088,0.000576622,-0.000122358,8.15149e-06
756,0.00051179,0.103537,-0.00701022,0.0106314,0.0517121,0.0517121,0.0517121,0.0517121,0.0517121,0.0517121,0.0517121,0.0517121,0.0517121,-0.801712,-0.635013,0.0693612,1.02508,0.103537,-0.00701022,0.0106314,0.000530511,-0.00902253,0.03994,0.0154955,-0.0131409,0.00901961,0.0517121,1.38386,14.5009,-0.0111948,-0.836573,-1.20652,0.354851,-0.00191355,-13.3979,0.152005,0.516339,0.027843,-0.370299,0.327244,-0.214406,0.361581,0.000530511,-0.00902253,0.03994,0.0154955,-0.0131409,0.00901961,0,0,0,0,0,0,0,0,0,-1.30385e-06,0.0053683,-0.000283969,0.00567134,-0.000343138,8.17961e-05,-0.000716158,0.000446359,0.000394039,-0.00172343,-0.000299338,-0.00258059
757,0.00051179,-0.00014029,-0.00430363,0.00322914,0.107755,0.107755,0.107755,0.107755,0.107755,0.107755,0.107755,0.107755,0.107755,-0.892245,0.733788,-0.712172,1.35711,-0.00014029,-0.00430363,0.00322914,-0.00445481,-0.00235315,0.00108492,-0.0010652,-0.00347829,-0.000225893,0.107755,0.000650361,0.00844931,-0.00127959,0.0100819,0.00119852,0.000176422,-0.00701564,-0.00950754,0.000364346,-0.0066116,0.000160084,0.00253554,0.000833346,0.000151437,0.00125096,-0.00445481,-0.00235315,0.00108492,-0.0010652,-0.00347829,-0.000225893,0,0,0,0,0,0,0,0,0,-0.000511818,-1.37379e-05,-0.000365596,-0.000497939,-0.000296349,0.000329269,1.78005e-06,0.000103939,0.000291854,0.000510552,-0.000137122,4.91206e-06
758,0.00051179,0.00435295,-0.00191935,0.00183251,0.0982004,0.0982004,0.0982004,0.0982004,0.0982004,0.0982004,0.0982004,0.0982004,0.0982004,-0.9018,0.544875,-0.628843,1.22702,0.00435295,-0.00191935,0.00183251,-0.0025703,-0.00132086,-0.000371553,-0.00238529,-0.00097863,-0.00109789,0.0982004,-0.000249073,0.0243203,-0.00211733,0.0185822,0.00103609,-0.00247165,0.0154876,-0.0297093,0.00616602,-0.0124559,-0.000705171,0.0070923,-0.00420697,-0.0014658,-0.0244124,-0.0025703,-0.00132086,-0.000371553,-0.00238529,-0.00097863,-0.00109789,0,0,0,0,0,0,0,0,0,-0.000482813,-1.2248e-05,-0.000324389,-0.000397616,-0.000293607,0.000290007,2.07525e-05,7.20148e-05,0.000308715,0.000369184,-8.88528e-05,-1.09696e-05
759,0.00051179,0.0124688,-0.00459468,0.00495124,0.09985,0.09985,0.09985,0.09985,0.09985,0.09985,0.09985,0.09985,0.09985,-0.84985,-0.66282,0.281668,1.11396,0.0124688,-0.00459468,0.00495124,-0.000929091,0.0018873,-0.0110637,-0.00323007,-0.00559315,0.0107467,0.09985,0.0724801,-1.29924,0.0134593,-0.059428,-0.0942422,-0.087337,0.578184,1.38102,-0.0368838,0.0131025,-0.0125312,0.24334,0.0509202,0.0852398,-0.826474,-0.000929091,0.0018873,-0.0110637,-0.00323007,-0.00559315,0.0107467,0,0,0,0,0,0,0,0,0,-0.000332601,0.000210728,-0.000480395,-0.00113488,-0.000302995,0.000633861,-0.000347597,-8.07949e-05,0.00029441,0.000150869,-0.000100448,0.000332905
760,0.00051179,0.00779188,0.00953043,-0.0111562,0.0715568,0.0715568,0.0715568,0.0715568,0.0715568,0.0715568,0.0715568,0.0715568,0.0715568,-0.928443,-0.470056,-0.370173,1.10453,0.00779188,0.00953043,-0.0111562,-0.00490697,-0.00376949,0.00721062,-3.50107e-05,-0.00163384,0.00211875,0.0715568,-0.0627868,0.619102,0.00394959,-0.0952755,0.0325781,-0.0615656,0.289532,-0.659472,-0.0117425,-0.068159,0.00471454,0.0214812,0.153904,-0.0387027,-0.299857,-0.00490697,-0.00376949,0.00721062,-3.50107e-05,-0.00163384,0.00211875,0,0,0,0,0,0,0,0,0,-0.00055664,-0.000204559,0.000341,-0.000531951,-0.000324422,-0.000339199,7.50221e-05,-1.99903e-05,0.000321098,-1.15989e-05,5.07973e-05,-4.90097e-05
761,0.00051179,-0.00367591,0.000830722,-0.0109401,0.00650951,0.00650951,0.00650951,0.00650951,0.00650951,0.00650951,0.00650951,0.00650951,0.00650951,-0.864513,-0.666554,-0.993491,1.47604,-0.00367591,0.000830722,-0.0109401,-0.00141695,2.44286e-05,0.000627387,-0.00947271,-0.00117141,0.00456773,0.00650951,0.00169076,-0.0135521,-0.000334643,0.0029588,0.000840143,0.000264764,0.0031512,0.0163878,-0.000905754,-0.0013075,4.6894e-05,0.00041458,-0.00248202,-0.00146494,0.00737437,-0.00141695,2.44286e-05,0.000627387,-0.00947271,-0.00117141,0.00456773,0,0,0,0,0,0,0,0,0,-0.000373445,9.44811e-06,0.000257899,-0.000435592,-0.000289345,-0.000261001,-4.38132e-05,-0.000106624,0.000331275,0.000444514,9.53793e-05,2.3593e-05
762,0.00051179,0.027797,0.0402707,-0.0749334,0.0152656,0.0152656,0.0152656,0.0152656,0.0152656,0.0152656,0.0152656,0.0152656,0.0152656,-0.984734,-0.515484,0.180561,1.12607,0.027797,0.0402707,-0.0749334,-0.013347,-0.00795871,0.0184587,0.021644,-0.000549327,0.0171296,0.0152656,0.341942,1.29891,0.00885464,-0.34702,-0.281856,-0.0622264,-0.588493,-1.04485,0.0675256,0.157872,0.00659908,0.0372571,0.148878,-0.031912,0.626169,-0.013347,-0.00795871,0.0184587,0.021644,-0.000549327,0.0171296,0,0,0,0,0,0,0,0,0,-0.000457607,0.00117799,-0.000361017,0.000122679,-0.000419134,0.000369976,-1.91308e-05,7.39013e-05,0.000378363,-0.000560356,-1.34038e-05,-0.000538891
763,0.00051179,-0.00854695,0.0123867,-0.0206456,0.081453,0.081453,0.081453,0.081453,0.081453,0.081453,0.081453,0.081453,0.081453,-0.66493,-0.276577,-0.018547,0.720396,-0.00854695,0.0123867,-0.0206456,0.00488829,-0.0204672,0.00998777,-0.0070241,0.00676295,0.00170044,0.081453,-0.325737,-0.42315,0.214498,1.24793,-0.677323,0.0148878,-4.37513,1.10902,-0.178167,0.182389,-0.302288,1.22931,-1.44271,-0.0661068,3.16647,0.00488829,-0.0204672,0.00998777,-0.0070241,0.00676295,0.00170044,0,0,0,0,0,0,0,0,0,-0.00074549,-0.000946038,0.00111558,0.0101206,-0.000248754,0.000824721,-0.000267748,-0.00599345,-0.000122726,-0.00987186,0.00303819,0.000336176
764,0.00051179,0.0106418,0.000111214,-0.00950814,0.0136702,0.0136702,0.0136702,0.0136702,0.0136702,0.0136702,0.0136702,0.0136702,0.0136702,-0.76367,-0.373796,-0.952447,1.27674,0.0106418,0.000111214,-0.00950814,-0.0125765,0.00620955,0.000119418,-0.00038952,-0.00322288,-0.00559457,0.0136702,0.000766471,-0.0145454,-0.000128947,0.00270243,-2.65609e-05,0.000834577,-0.00236842,0.00393023,0.000776155,0.00312708,8.40826e-05,-0.0013116,-0.00594073,-4.16115e-06,0.0131882,-0.0125765,0.00620955,0.000119418,-0.00038952,-0.00322288,-0.00559457,0,0,0,0,0,0,0,0,0,-0.000327714,-3.94092e-05,0.000172093,-0.000361749,-0.000318462,-0.000111287,2.15741e-05,-4.90324e-05,0.000389501,0.000371289,1.76444e-05,-8.35274e-06
765,0.00051179,0.0147381,-0.00583143,0.0108372,0.00385437,0.00385437,0.00385437,0.00385437,0.00385437,0.00385437,0.00385437,0.00385437,0.00385437,-0.753854,0.267374,0.89475,1.20015,0.0147381,-0.00583143,0.0108372,0.00980675,-0.00750675,-0.000414813,-0.00603706,0.00183686,0.010482,0.00385437,0.000409856,-0.0148044,-0.000124685,0.00156245,-0.000588773,0.000439852,-0.00185381,0.000655057,-0.000701027,-0.00143915,-0.000349787,-0.000410852,0.00570814,-0.000505704,-0.00857259,0.00980675,-0.00750675,-0.000414813,-0.00603706,0.00183686,0.010482,0,0,0,0,0,0,0,0,0,-0.000680126,3.55583e-05,0.00010669,-0.000279714,-0.000349665,-0.000183004,-4.92152e-05,1.66444e-05,0.000351176,0.000279965,-1.77369e-06,3.43565e-05
766,0.00051179,-0.000672117,0.00738211,-0.0131925,0.0444119,0.0444119,0.0444119,0.0444119,0.0444119,0.0444119,0.0444119,0.0444119,0.0444119,-0.955588,0.88236,0.448124,1.37569,-0.000672117,0.00738211,-0.0131925,-0.00361982,-0.00432068,-0.00517967,0.000555824,-0.0188947,0.0115068,0.0444119,-0.000995323,-0.0171682,-0.00658631,0.0307094,0.0389829,-0.000514433,0.0352748,-0.0211426,-0.000677215,0.0285493,0.00532328,-0.020348,-0.0666409,0.00121035,-0.00173438,-0.00361982,-0.00432068,-0.00517967,0.000555824,-0.0188947,0.0115068,0,0,0,0,0,0,0,0,0,-0.000323169,-3.22841e-05,0.000599118,-0.000595675,-0.000315392,-0.000708188,-9.81533e-06,2.64854e-05,0.000241719,0.000538734,-0.000162199,5.43772e-05
767,0.00051179,0.00905201,-0.014921,-0.00846115,0.0466651,0.0466651,0.0466651,0.0466651,0.0466651,0.0466651,0.0466651,0.0466651,0.0466651,-0.953335,0.543873,-0.446979,1.18509,0.00905201,-0.014921,-0.00846115,-0.0072841,-0.00212006,-0.00357284,0.00166667,-0.00655877,0.00670073,0.0466651,-0.0271526,0.320722,0.00283629,-0.0239077,0.012373,-0.0262773,0.186838,-0.342147,-0.00294702,0.0607129,-0.00240106,0.0376035,-0.0218842,-0.0190891,-0.21598,-0.0072841,-0.00212006,-0.00357284,0.00166667,-0.00655877,0.00670073,0,0,0,0,0,0,0,0,0,-0.00055211,-0.000116677,-0.000405683,-0.000392281,-0.000302995,0.000412845,4.91045e-05,2.32268e-05,0.000292696,9.378e-05,-0.000112825,-6.4354e-06
768,0.00051179,-0.000436874,-7.42972e-05,0.000624143,0.059771,0.059771,0.059771,0.059771,0.059771,0.059771,0.059771,0.059771,0.059771,-0.809771,-0.747885,-0.539003,1.22702,-0.000436874,-7.42972e-05,0.000624143,-0.00613001,0.00317983,0.00269407,0.00110366,-0.0140567,0.00152831,0.059771,0.0015641,0.00474858,-0.00124007,0.00228027,-0.000600684,-0.000139054,0.0285319,-0.00371102,0.00845171,0.0290749,-0.00433566,-0.00425174,-0.0312809,-4.76427e-05,-0.0249043,-0.00613001,0.00317983,0.00269407,0.00110366,-0.0140567,0.00152831,0,0,0,0,0,0,0,0,0,-0.000603236,-3.02951e-05,0.000476571,-0.000496198,-0.000371749,-0.000457174,4.03113e-05,-0.000227971,0.000355445,0.000521749,4.40467e-05,-6.21894e-08
769,0.00051179,0.00431019,0.00251115,-0.0040575,0.0637806,0.0637806,0.0637806,0.0637806,0.0637806,0.0637806,0.0637806,0.0637806,0.0637806,-0.936219,-0.0508559,-0.531006,1.07753,0.00431019,0.00251115,-0.0040575,-0.00322066,0.0013783,0.00247676,-0.00481022,-0.00110052,-0.00176636,0.0637806,-0.00365607,0.0553323,-0.00167923,-0.00646786,-0.000457186,-0.00804303,0.0454983,-0.0591853,0.00192068,0.00278319,-0.00561179,-0.000708812,0.00117352,-0.00484497,-0.040732,-0.00322066,0.0013783,0.00247676,-0.00481022,-0.00110052,-0.00176636,0,0,0,0,0,0,0,0,0,-0.000423856,-1.54864e-05,3.18379e-05,-0.000340133,-0.000309968,-3.48472e-05,4.44956e-06,-4.6945e-05,0.000328369,0.00028447,-2.01781e-05,-1.41594e-05
770,0.00051179,0.0130384,0.0206898,-0.0521991,0.0864917,0.0864917,0.0864917,0.0864917,0.0864917,0.0864917,0.0864917,0.0864917,0.0864917,-0.836492,-0.34967,-0.182476,0.924816,0.0130384,0.0206898,-0.0521991,-0.00865299,0.00901198,-0.000707462,-0.00104314,0.00763583,-0.00934936,0.0864917,-0.359445,0.880716,0.0738111,-0.340987,-0.015456,-0.229643,-1.46446,-0.878299,-0.105425,-0.0779839,0.0571956,-0.0858008,0.398281,-0.0974511,1.60246,-0.00865299,0.00901198,-0.000707462,-0.00104314,0.00763583,-0.00934936,0,0,0,0,0,0,0,0,0,-0.000761859,-0.00116968,0.000798422,-0.00188042,-0.000295872,2.98091e-05,0.000138466,0.000441987,0.000311121,-0.000423084,0.000206327,0.000136806
771,0.00051179,-0.0107657,0.00305536,-0.000317812,0.0451897,0.0451897,0.0451897,0.0451897,0.0451897,0.0451897,0.0451897,0.0451897,0.0451897,-0.95481,-0.423384,-0.201266,1.06368,-0.0107657,0.00305536,-0.000317812,0.00738125,-0.011773,0.0244297,-0.013375,-0.0227011,-0.00788908,0.0451897,-0.336348,-0.685448,0.0397009,0.299708,0.169999,-0.124977,-0.792787,0.526214,-0.0692186,0.0152379,0.0139867,-0.0108548,-0.318002,0.00936031,0.80396,0.00738125,-0.011773,0.0244297,-0.013375,-0.0227011,-0.00788908,0,0,0,0,0,0,0,0,0,-0.000633188,-0.00117165,0.000347546,-0.000514126,-0.000311518,-6.82676e-05,6.02118e-05,-7.00768e-05,0.00035724,-0.000491348,-1.70667e-05,0.000480536
772,0.00051179,0.0230533,0.0242538,-0.00820053,0.0879427,0.0879427,0.0879427,0.0879427,0.0879427,0.0879427,0.0879427,0.0879427,0.0879427,-0.837943,0.87545,0.257954,1.23899,0.0230533,0.0242538,-0.00820053,0.00035542,-0.000776187,-0.00066977,-0.0105631,0.0301358,0.00680569,0.0879427,0.0523331,-0.978783,-0.0307758,0.327931,0.0851384,-0.029789,0.103262,0.870591,-0.0159612,0.154365,0.0545276,-0.100715,-0.50655,-0.0053449,0.00565381,0.00035542,-0.000776187,-0.00066977,-0.0105631,0.0301358,0.00680569,0,0,0,0,0,0,0,0,0,-0.000197642,0.000231568,0.000552487,-0.00103835,-0.000454867,-0.000868007,-0.000164497,0.000522378,0.000308052,0.000733761,0.000324257,-2.4571e-05
773,0.00051179,0.00150755,0.00188855,-0.00185557,0.0568969,0.0568969,0.0568969,0.0568969,0.0568969,0.0568969,0.0568969,0.0568969,0.0568969,-0.806897,-0.23765,0.621143,1.04565,0.00150755,0.00188855,-0.00185557,0.00146607,-6.28177e-05,0.00025022,-0.00628446,-0.00192569,0.00526625,0.0568969,0.000650421,-0.00780475,0.000249512,0.00444963,0.000107357,-0.000252098,0.0104095,0.00618985,-0.0045798,-0.00508141,-0.000804494,0.000150057,-0.00125677,0.000921205,-0.00870399,0.00146607,-6.28177e-05,0.00025022,-0.00628446,-0.00192569,0.00526625,0,0,0,0,0,0,0,0,0,-0.000613205,1.35367e-05,-0.000160401,-0.000210164,-0.000327552,0.000162268,-5.13671e-05,1.0814e-05,0.000336975,0.000210145,-3.81159e-05,3.38915e-05
774,0.00051179,0.0510229,0.0525326,-0.0851272,0.0112021,0.0112021,0.0112021,0.0112021,0.0112021,0.0112021,0.0112021,0.0112021,0.0112021,-0.761202,-0.906405,0.321517,1.22653,0.0510229,0.0525326,-0.0851272,0.0253806,-0.0159076,0.0158409,-0.0167863,-0.0514012,-0.0820502,0.0112021,0.00122847,-0.0581857,0.000866778,-0.0798183,0.00865175,-0.0010518,0.0224878,-0.00148889,-0.0125249,-0.137535,-0.00961142,-0.0555116,0.16482,-0.0111639,0.118151,0.0253806,-0.0159076,0.0158409,-0.0167863,-0.0514012,-0.0820502,0,0,0,0,0,0,0,0,0,-0.000209615,0.000243718,-0.000708247,-0.000763153,-0.000199908,0.000557839,-3.58835e-05,-0.00050287,0.000408895,0.000911043,-0.000107256,-0.000355398
775,0.00051179,-0.00285618,-0.00385606,0.00475626,0.0629416,0.0629416,0.0629416,0.0629416,0.0629416,0.0629416,0.0629416,0.0629416,0.0629416,-0.937058,-0.83919,0.699421,1.43927,-0.00285618,-0.00385606,0.00475626,0.000540921,-0.000923075,-0.00109195,0.00386971,0.0101302,0.00683858,0.0629416,0.00181736,-0.0147878,0.000604458,-0.00497945,0.00292598,-0.00126505,0.021123,0.014718,0.000508977,0.0039033,-0.00104849,-0.00793465,0.00493222,-0.000381518,-0.0179446,0.000540921,-0.000923075,-0.00109195,0.00386971,0.0101302,0.00683858,0,0,0,0,0,0,0,0,0,-0.000448525,-3.43247e-06,-0.000420798,-0.000432455,-0.000361348,0.000417611,6.66955e-06,3.03999e-05,0.000300534,0.000408885,6.04169e-05,1.70614e-05
776,0.00051179,-0.00275802,0.00389922,-0.00365845,0.116213,0.116213,0.116213,0.116213,0.116213,0.116213,0.116213,0.116213,0.116213,-0.866213,-0.204735,0.503914,1.02282,-0.00275802,0.00389922,-0.00365845,-0.002756,0.00258488,0.000357857,-8.67057e-05,0.00287941,0.00434235,0.116213,0.00306942,-0.0455273,-0.000689618,0.012993,-0.000293283,-0.00463813,0.0532738,0.0485786,0.00295208,0.00587578,0.00107619,0.000527285,-0.0227679,0.00697487,-0.0501426,-0.002756,0.00258488,0.000357857,-8.67057e-05,0.00287941,0.00434235,0,0,0,0,0,0,0,0,0,-0.0005932,-1.51591e-05,-0.000150369,-0.000227017,-0.00034287,0.000169322,-2.39929e-06,6.11792e-05,0.000319988,0.000184215,-2.16232e-05,3.98599e-05
777,0.00051179,0.0129876,0.0253948,-0.0120534,0.00781893,0.00781893,0.00781893,0.00781893,0.00781893,0.00781893,0.00781893,0.00781893,0.00781893,-0.757819,0.228652,0.529798,0.952501,0.0129876,0.0253948,-0.0120534,-0.00339684,0.00974868,0.00842131,-0.00286174,0.000569138,-0.00354924,0.00781893,-0.000116035,-0.0172439,0.000181086,-0.0138263,-0.00197651,0.00010274,0.0378955,0.00623288,-0.016676,6.25366e-05,-4.48842e-05,0.0020157,-0.011631,0.00291668,-0.0278578,-0.00339684,0.00974868,0.00842131,-0.00286174,0.000569138,-0.00354924,0,0,0,0,0,0,0,0,0,-0.000596233,9.76233e-06,0.000146862,-0.000252756,-0.000356102,-4.75647e-05,-7.03618e-05,1.00453e-05,0.000337563,0.000337997,-4.80281e-06,2.41639e-05
778,0.00051179,0.0125176,0.0191012,-0.0301847,0.0105521,0.0105521,0.0105521,0.0105521,0.0105521,0.0105521,0.0105521,0.0105521,0.0105521,-0.989448,0.571201,0.407707,1.21306,0.0125176,0.0191012,-0.0301847,0.0127803,-0.00852169,-0.00962546,0.0167586,-0.00603528,-0.0131649,0.0105521,0.0397442,-0.224561,-0.000747018,0.0154462,-0.0569672,-0.0334803,-0.00527843,0.269011,0.00762234,-0.0841126,-0.00736107,0.0680306,0.0495652,0.0165356,-0.0325675,0.0127803,-0.00852169,-0.00962546,0.0167586,-0.00603528,-0.0131649,0,0,0,0,0,0,0,0,0,-0.000469275,0.000169996,0.00041348,-0.000305326,-0.000293726,-0.000506167,2.92784e-05,-5.88393e-05,0.000279777,-0.000125732,-7.51242e-05,-7.57727e-05
779,0.00051179,0.0003265,0.00138267,0.00256714,0.101624,0.101624,0.101624,0.101624,0.101624,0.101624,0.101624,0.101624,0.101624,-0.898376,-0.411707,0.813936,1.28026,0.0003265,0.00138267,0.00256714,-0.00208997,-0.00197772,-0.00106419,0.00370875,0.000411389,0.00402808,0.101624,0.000603691,-0.00493774,0.000338443,-0.00469332,-0.000716435,8.57003e-05,0.00633984,0.00532767,-0.00054525,-0.000140328,-0.000571067,0.000303286,0.00345098,-0.000463679,-0.00921027,-0.00208997,-0.00197772,-0.00106419,0.00370875,0.000411389,0.00402808,0,0,0,0,0,0,0,0,0,-0.000625446,-1.34794e-05,-0.000221271,-0.000268242,-0.000340933,0.000204878,9.76947e-06,8.52468e-06,0.000324249,0.000258457,-1.01215e-05,1.1774e-05
780,0.00051179,0.0128006,0.0164548,-0.000767599,0.0069956,0.0069956,0.0069956,0.0069956,0.0069956,0.0069956,0.0069956,0.0069956,0.0069956,-0.756996,0.599097,0.683402,1.18279,0.0128006,0.0164548,-0.000767599,0.0372455,0.00755437,-0.00788657,0.00341877,0.0116643,0.0187462,0.0069956,-0.000194475,-0.0133558,0.000180908,-0.0173006,0.000300302,0.00064851,0.0098831,0.000254986,-0.00385805,0.00165462,-0.000846389,0.00130285,-0.000808856,-0.000470366,-0.0104183,0.0372455,0.00755437,-0.00788657,0.00341877,0.0116643,0.0187462,0,0,0,0,0,0,0,0,0,-0.000549413,0.000121923,0.000299421,-0.000324644,-0.000377322,-0.000222068,-6.55282e-05,8.97642e-05,0.000342496,0.000252264,1.8415e-05,2.80473e-05
781,0.00051179,-0.00236658,-5.24097e-05,0.00350023,0.0469046,0.0469046,0.0469046,0.0469046,0.0469046,0.0469046,0.0469046,0.0469046,0.0469046,-0.953095,-0.0370831,0.81059,1.25173,-0.00236658,-5.24097e-05,0.00350023,-0.00473331,-0.00124465,-0.000620959,0.00916787,-0.00101308,0.00255253,0.0469046,0.00115038,-0.0118933,0.000542231,-0.00453425,0.000378177,-0.00111413,0.023552,0.0138817,0.000369562,0.00066239,-0.000635451,-0.000678849,0.00392427,0.000579465,-0.0263733,-0.00473331,-0.00124465,-0.000620959,0.00916787,-0.00101308,0.00255253,0,0,0,0,0,0,0,0,0,-0.000671275,-2.83991e-05,-3.20397e-05,-0.000233727,-0.000337863,2.50155e-05,3.72027e-05,1.29888e-05,0.000304282,0.000216376,-2.94741e-05,5.17554e-06
782,0.00051179,0.0028048,0.0022122,-0.000177054,0.112001,0.112001,0.112001,0.112001,0.112001,0.112001,0.112001,0.112001,0.112001,-0.862001,-0.0495631,0.616394,1.06087,0.0028048,0.0022122,-0.000177054,-0.00424324,-0.000613712,-0.00012967,0.00153716,-0.000472537,0.00332672,0.112001,0.00131448,-0.0160333,-7.97957e-06,0.00546333,8.55332e-05,-0.00120724,0.0238376,0.013143,-0.0018359,-0.00164523,-0.000637385,-0.000568595,-0.0060303,0.00288072,-0.023092,-0.00424324,-0.000613712,-0.00012967,0.00153716,-0.000472537,0.00332672,0,0,0,0,0,0,0,0,0,-0.000631563,-1.80822e-05,-3.96333e-05,-0.000200754,-0.000338221,3.34164e-05,-4.93208e-06,1.99694e-05,0.000319831,0.000187385,-3.10686e-05,2.75988e-05
783,0.00051179,0.000955403,-0.0263344,-0.011199,0.0984326,0.0984326,0.0984326,0.0984326,0.0984326,0.0984326,0.0984326,0.0984326,0.0984326,-0.901567,0.498933,-0.191658,1.04809,0.000955403,-0.0263344,-0.011199,-0.00567792,0.00551882,0.0139152,0.00279322,-0.00215329,-0.0010453,0.0984326,-0.454653,-0.781546,-0.0567662,-0.0301848,0.323512,-0.198147,-1.70772,0.457078,-0.0639265,0.0146472,-0.0281736,0.119955,0.041872,-0.00530847,1.59897,-0.00567792,0.00551882,0.0139152,0.00279322,-0.00215329,-0.0010453,0,0,0,0,0,0,0,0,0,-0.000757851,-0.00169263,-0.000517801,-0.00112981,-0.000302756,5.32715e-06,0.000303354,-0.000212047,0.000300393,-0.000712508,-9.12217e-05,0.000577252
784,0.00051179,-0.0130275,0.00370868,-0.024093,0.000805597,0.000805597,0.000805597,0.000805597,0.000805597,0.000805597,0.000805597,0.000805597,0.000805597,-0.999194,0.0847083,-0.423998,1.08873,-0.0130275,0.00370868,-0.024093,-0.00431225,0.000170745,-0.00224034,0.0111044,-0.0119721,0.0025711,0.000805597,-0.0190649,0.0618435,0.00290603,-0.0387297,-0.0107687,-0.020573,0.0143008,-0.0380474,-0.0289827,0.00484249,0.000554511,-0.0193432,0.0301785,-0.0067342,0.0291354,-0.00431225,0.000170745,-0.00224034,0.0111044,-0.0119721,0.0025711,0,0,0,0,0,0,0,0,0,-0.000462748,-6.44799e-05,-4.47863e-05,-0.000391221,-0.000321472,7.55541e-05,-3.69854e-05,-0.000100255,0.000310048,0.000163088,-1.39206e-05,3.15906e-05
785,0.00051179,0.0485753,-0.0426141,0.0283709,0.0015403,0.0015403,0.0015403,0.0015403,0.0015403,0.0015403,0.0015403,0.0015403,0.0015403,-0.99846,0.353371,-0.0825782,1.06236,0.0485753,-0.0426141,0.0283709,0.00748274,0.00357049,0.00527422,-0.0100129,-0.00484655,-0.0336339,0.0015403,-0.185143,-1.35694,-0.051221,-0.283018,0.082576,0.0511314,0.21335,1.22579,-0.0323447,-0.0138243,0.0194824,-0.0506184,0.339456,0.0463361,-0.191103,0.00748274,0.00357049,0.00527422,-0.0100129,-0.00484655,-0.0336339,0,0,0,0,0,0,0,0,0,-0.000599675,-0.00064909,-0.000192347,0.000151146,-0.000310266,-0.000284158,2.74222e-05,-7.20342e-05,0.000388876,0.00041291,0.000218392,0.000302721
786,0.00051179,-0.00793052,-0.00530173,0.0355184,0.067134,0.067134,0.067134,0.067134,0.067134,0.067134,0.067134,0.067134,0.067134,-0.932866,-0.551024,-0.0300666,1.08387,-0.00793052,-0.00530173,0.0355184,0.00561267,0.00397049,-0.0140641,-0.0065228,-0.0081079,-0.001489,0.067134,-0.178689,-1.78023,0.00844742,0.0790524,0.179326,0.236936,1.76503,1.60883,-0.0132028,-0.0717722,-0.0281517,-0.408997,-0.00197852,0.0463473,-1.39155,0.00561267,0.00397049,-0.0140641,-0.0065228,-0.0081079,-0.001489,0,0,0,0,0,0,0,0,0,-0.000637941,-0.000694677,0.000124577,0.0018882,-0.000362778,-3.97525e-07,7.20759e-05,-0.000340578,0.000485286,0.000340515,-2.20182e-05,0.000394996
787,0.00051179,0.00311087,-0.00189618,0.000451125,0.0931456,0.0931456,0.0931456,0.0931456,0.0931456,0.0931456,0.0931456,0.0931456,0.0931456,-0.906854,0.342519,-0.787628,1.24902,0.00311087,-0.00189618,0.000451125,-0.00237418,-0.00196809,-0.000314694,-0.00188817,-0.00180909,0.000559323,0.0931456,-0.000582024,0.00996214,-0.00136184,0.00928142,0.000729788,0.000483092,-0.00559215,-0.0138028,-0.000455217,-0.00140693,-0.000302394,0.00163348,-0.00597832,-0.000655979,0.00350754,-0.00237418,-0.00196809,-0.000314694,-0.00188817,-0.00180909,0.000559323,0,0,0,0,0,0,0,0,0,-0.000374474,-8.55456e-06,-0.000178851,-0.000348611,-0.00030517,0.000145552,-5.49051e-06,4.52869e-05,0.000322357,0.000350294,-6.64018e-05,5.74316e-06
788,0.00051179,-0.0159533,0.0418965,-0.0228388,0.0374813,0.0374813,0.0374813,0.0374813,0.0374813,0.0374813,0.0374813,0.0374813,0.0374813,-0.787481,0.810194,0.212904,1.14973,-0.0159533,0.0418965,-0.0228388,0.0396884,-0.0317665,-0.0322341,-0.0204417,0.039147,0.00155157,0.0374813,0.0732505,-3.2864,-0.0361297,1.03091,-0.0360174,-0.102235,2.91986,3.33837,-0.0341673,0.0903698,0.093664,0.155974,-1.16317,0.134921,-3.05299,0.0396884,-0.0317665,-0.0322341,-0.0204417,0.039147,0.00155157,0,0,0,0,0,0,0,0,0,-0.000135235,0.000339923,0.0002742,-0.0024133,-0.000507051,-0.000953162,-0.000497817,0.000658975,0.000310898,0.0010686,0.000669134,0.00045759
789,0.00051179,0.00367737,0.0173813,-0.0147397,0.00202044,0.00202044,0.00202044,0.00202044,0.00202044,0.00202044,0.00202044,0.00202044,0.00202044,-0.75202,-0.340281,0.713989,1.09138,0.00367737,0.0173813,-0.0147397,0.0224284,-0.0102858,-0.000187658,-0.00461929,-0.00543592,0.0152049,0.00202044,8.10772e-05,-0.00321514,-0.0001074,-0.0127181,0.000272993,0.000583883,0.0193265,-0.000735231,-0.00236826,-0.00297762,-0.000644528,-0.000150745,-0.00168554,-1.51619e-06,-0.00443603,0.0224284,-0.0102858,-0.000187658,-0.00461929,-0.00543592,0.0152049,0,0,0,0,0,0,0,0,0,-0.000613764,7.70952e-05,-0.000203141,-0.000240892,-0.000313306,9.92089e-05,-7.039e-05,-1.67052e-05,0.000357464,0.000244854,-4.40993e-05,4.05646e-05
790,0.00051179,0.000861168,-0.0170782,-0.0117593,0.0758346,0.0758346,0.0758346,0.0758346,0.0758346,0.0758346,0.0758346,0.0758346,0.0758346,-0.825835,0.380531,-0.102575,0.915056,0.000861168,-0.0170782,-0.0117593,-0.018858,0.0135605,0.00996534,0.00787322,0.00053004,-0.0151088,0.0758346,-0.823593,-7.26072,-0.212888,-1.83602,0.13534,-0.0410128,-2.29135,7.12452,-0.182803,-0.127837,-0.0171845,-0.0501696,1.98094,0.0974596,2.35328,-0.018858,0.0135605,0.00996534,0.00787322,0.00053004,-0.0151088,0,0,0,0,0,0,0,0,0,-0.000907473,-0.00313338,-0.00117235,0.00077456,-0.000387723,-0.000820918,0.000204232,-4.11818e-05,0.000339232,-0.00108503,-0.000125363,0.00149064
791,0.00051179,0.00226407,-0.00605383,0.00415615,0.046728,0.046728,0.046728,0.046728,0.046728,0.046728,0.046728,0.046728,0.046728,-0.953272,0.506554,-0.83147,1.3626,0.00226407,-0.00605383,0.00415615,-0.000166904,-0.00177768,0.000665162,-0.005962,-0.00417857,0.00372223,0.046728,-0.000404224,0.00435535,-0.00135069,0.00822221,0.000615971,0.00123678,-0.00776048,-0.00723539,-0.00140828,-8.43859e-05,7.37598e-05,0.00104127,-0.00208399,-0.00157596,0.00256306,-0.000166904,-0.00177768,0.000665162,-0.005962,-0.00417857,0.00372223,0,0,0,0,0,0,0,0,0,-0.00039237,3.83106e-06,-0.000232036,-0.000383215,-0.00031873,0.000200752,-3.01647e-05,6.28725e-05,0.000291027,0.000402235,-0.000103921,1.74181e-05
792,0.00051179,-0.000455618,0.0191118,0.0035584,0.0905124,0.0905124,0.0905124,0.0905124,0.0905124,0.0905124,0.0905124,0.0905124,0.0905124,-0.909488,0.611045,0.0482968,1.09676,-0.000455618,0.0191118,0.0035584,0.00384006,0.00629368,6.58538e-05,0.00746672,0.00531159,0.00242189,0.0905124,0.419851,3.09006,-0.0114286,0.210139,-0.305459,0.288638,1.94572,-2.78414,0.0575384,-0.132106,-0.0133132,-0.374185,-0.0971441,-0.0956389,-1.57509,0.00384006,0.00629368,6.58538e-05,0.00746672,0.00531159,0.00242189,0,0,0,0,0,0,0,0,0,-0.000442691,0.00166213,0.000137099,0.00269688,-0.000296617,-0.000188449,-0.000131296,-5.3617e-05,0.000448242,0.000190155,-2.63995e-05,-0.000922407
793,0.00051179,-0.0062965,-0.00275315,0.00615899,0.117888,0.117888,0.117888,0.117888,0.117888,0.117888,0.117888,0.117888,0.117888,-0.867888,0.463578,0.603734,1.1544,-0.0062965,-0.00275315,0.00615899,-0.00159362,0.000237642,0.00123272,-0.00114559,0.00102706,0.00959245,0.117888,0.0013587,-0.0235765,-0.000266187,0.0103203,-0.000210952,-0.0018062,0.034894,0.030084,-0.00171633,0.00030114,-0.000767809,0.00162036,-0.00786828,0.0031085,-0.0426733,-0.00159362,0.000237642,0.00123272,-0.00114559,0.00102706,0.00959245,0,0,0,0,0,0,0,0,0,-0.000566356,-1.22563e-05,0.000277034,-0.000282359,-0.000343824,-0.00027732,-2.53913e-05,2.25799e-05,0.000306867,0.000276624,-1.99874e-05,5.24231e-05
794,0.00051179,0.00240043,-0.00250051,-0.00457866,0.119229,0.119229,0.119229,0.119229,0.119229,0.119229,0.119229,0.119229,0.119229,-0.869229,-0.417144,-0.854828,1.28853,0.00240043,-0.00250051,-0.00457866,-0.00609276,0.00254253,0.00302492,-0.00252339,-0.00167405,-0.00203945,0.119229,0.000246957,0.00622906,-0.000814579,0.00425573,-0.000108476,0.000851542,-0.00119596,-0.00852102,-0.00103983,0.00136974,-0.000198048,-0.000712091,-0.00312496,-0.000611525,0.00648671,-0.00609276,0.00254253,0.00302492,-0.00252339,-0.00167405,-0.00203945,0,0,0,0,0,0,0,0,0,-0.000367455,-1.53136e-05,0.000213549,-0.00033972,-0.000304842,-0.000196269,-3.90075e-06,-5.83859e-05,0.000347704,0.000378485,3.96649e-05,6.60511e-07
795,0.00051179,-0.00369736,0.00267645,-0.0104197,0.0282693,0.0282693,0.0282693,0.0282693,0.0282693,0.0282693,0.0282693,0.0282693,0.0282693,-0.81084,0.123169,-0.971731,1.27157,-0.00369736,0.00267645,-0.0104197,-0.00756207,0.00136179,0.000236198,0.00350133,-0.000714801,-0.0011091,0.0282693,0.00137843,-0.00534481,-0.000131272,0.00197512,-4.28063e-06,0.000734206,-0.000938443,0.00904644,-6.4807e-05,-0.000657361,-6.18147e-05,0.00051701,-0.00399422,-0.000633713,0.0108411,-0.00756207,0.00136179,0.000236198,0.00350133,-0.000714801,-0.0011091,0,0,0,0,0,0,0,0,0,-0.000289984,-2.57375e-05,-5.17361e-05,-0.00034839,-0.000302756,6.40413e-05,2.23633e-05,2.35574e-05,0.000367455,0.000358094,-3.13235e-05,-3.53338e-06
796,0.00051179,-0.00866252,-0.0164791,-0.00581324,0.0115047,0.0115047,0.0115047,0.0115047,0.0115047,0.0115047,0.0115047,0.0115047,0.0115047,-0.988495,0.816101,-0.211784,1.29923,-0.00866252,-0.0164791,-0.00581324,0.015315,-0.0090385,0.0364329,-0.0201309,-0.056996,-0.00294304,0.0115047,-0.19464,-0.967701,0.0483255,0.0952889,0.109345,0.01202,-0.638727,0.867019,-0.019287,0.135212,0.00459991,0.0731356,-0.214022,0.0311939,0.571405,0.015315,-0.0090385,0.0364329,-0.0201309,-0.056996,-0.00294304,0,0,0,0,0,0,0,0,0,-0.000798017,-0.000676825,-0.00079426,7.54669e-05,-0.000286574,0.00118713,2.27085e-05,-1.42144e-05,0.000254437,0.000409062,-0.000509747,0.000361053
797,0.00051179,0.0227527,0.0136629,-0.0145475,0.0318109,0.0318109,0.0318109,0.0318109,0.0318109,0.0318109,0.0318109,0.0318109,0.0318109,-0.781811,0.880712,-0.4284,1.25316,0.0227527,0.0136629,-0.0145475,-0.021615,-0.0045894,0.015533,0.000166085,0.0322389,0.0244543,0.0318109,5.05e-05,-0.00183289,-0.000964515,-0.0105794,-0.00376725,0.0003004,-0.00302783,-0.0171526,0.0061432,-0.081567,0.00267997,-0.00997396,0.0784835,0.00337455,0.0275493,-0.021615,-0.0045894,0.015533,0.000166085,0.0322389,0.0244543,0,0,0,0,0,0,0,0,0,-0.000755705,-0.00012233,-0.000625942,-0.000758167,-0.000184679,0.000570402,1.70383e-05,0.000374108,0.000351831,0.000916502,-2.4919e-05,0.000124636
798,0.00051179,0.000264048,-0.00448824,-0.00704547,0.0159876,0.0159876,0.0159876,0.0159876,0.0159876,0.0159876,0.0159876,0.0159876,0.0159876,-0.976892,-0.339538,0.984012,1.42755,0.000264048,-0.00448824,-0.00704547,-0.00670041,0.00168652,0.000490531,0.00957544,-0.000572355,-0.000946182,0.0159876,0.000979796,0.00136214,-0.000345223,-0.000641288,7.19975e-05,0.000135504,0.00535502,-0.00169818,0.000881685,0.00227943,0.000215714,0.000455026,0.0028501,-0.00178737,0.00123543,-0.00670041,0.00168652,0.000490531,0.00957544,-0.000572355,-0.000946182,0,0,0,0,0,0,0,0,0,-0.00068295,-3.09142e-05,-0.000152251,-0.000281866,-0.000351692,0.000165664,4.99745e-05,-3.66856e-07,0.000304073,0.000288127,-3.19956e-06,-1.59789e-05
799,0.00051179,-0.0361118,-0.000382721,-0.0149992,0.114309,0.114309,0.114309,0.114309,0.114309,0.114309,0.114309,0.114309,0.114309,-0.864309,0.730882,-0.106787,1.13693,-0.0361118,-0.000382721,-0.0149992,-0.00217104,-0.0148675,0.014478,0.00293678,-0.021567,0.00329024,0.114309,-0.879789,-7.7681,0.0885592,0.432238,0.823178,0.0648391,-1.6025,6.98103,-0.0542108,0.392827,-0.0246633,-0.0123743,-0.824682,0.188898,1.62987,-0.00217104,-0.0148675,0.014478,0.00293678,-0.021567,0.00329024,0,0,0,0,0,0,0,0,0,-0.000978403,-0.00355475,-3.7944e-05,0.00118753,-0.000205928,0.000774861,0.000598682,-0.000620815,0.000370204,-0.000394363,0.000158512,0.00181599
800,0.00051179,-0.0513515,0.131214,-0.00191319,0.014131,0.014131,0.014131,0.014131,0.014131,0.014131,0.014131,0.014131,0.014131,-0.723892,-0.985869,-0.0628116,1.22471,-0.0513515,0.131214,-0.00191319,-0.162869,-0.203381,0.410767,-0.076703,-0.0742753,0.150374,0.014131,-2.40172,-25.3408,-0.0972313,-0.740966,-6.52448,1.34634,1.02126,31.9167,-0.0106054,-0.540052,0.0130098,0.624932,1.1498,0.369835,-1.64428,-0.162869,-0.203381,0.410767,-0.076703,-0.0742753,0.150374,0,0,0,0,0,0,0,0,0,-0.00171855,-0.0103633,0.00492495,0.0110093,-0.00101661,-0.00793108,0.0020231,0.00769782,0.00125673,0.00656183,-0.00831047,0.00506068
801,0.00051179,0.00172229,-0.000696582,-0.00466853,0.0554219,0.0554219,0.0554219,0.0554219,0.0554219,0.0554219,0.0554219,0.0554219,0.0554219,-0.805422,0.769867,0.734792,1.33466,0.00172229,-0.000696582,-0.00466853,0.00206385,-0.00222674,-0.000927679,0.00040137,0.00813566,0.00509008,0.0554219,0.000105098,-0.00118936,0.000579007,-0.00259669,8.51761e-05,0.000458986,0.00297698,-0.000618103,-0.000800209,0.00350006,-0.000867529,0.00132824,-0.000206796,-0.000960227,0.000363309,0.00206385,-0.00222674,-0.000927679,0.00040137,0.00813566,0.00509008,0,0,0,0,0,0,0,0,0,-0.000515983,4.03707e-06,0.000323401,-0.000416247,-0.000363076,-0.000339879,-8.80184e-06,8.76799e-05,0.00032898,0.00041156,-1.49986e-05,1.38416e-05
802,0.00051179,-0.0321572,-0.011987,0.0114056,0.0206642,0.0206642,0.0206642,0.0206642,0.0206642,0.0206642,0.0206642,0.0206642,0.0206642,-0.770664,-0.229689,-0.47008,0.931481,-0.0321572,-0.011987,0.0114056,-0.000547088,0.00442844,0.00303176,0.00591411,0.00177642,0.0101157,0.0206642,-0.00046359,0.0371491,-0.000284187,0.0051015,0.000580853,-0.0005523,0.0239354,-0.00557275,0.0226163,0.0206097,-0.00673469,0.00196238,-0.0137242,-0.00747336,-0.0373034,-0.000547088,0.00442844,0.00303176,0.00591411,0.00177642,0.0101157,0,0,0,0,0,0,0,0,0,-0.000464626,-3.98558e-05,0.00014569,-0.000375224,-0.000338012,-0.000104247,0.000107849,-4.43141e-05,0.000381157,0.000400018,-5.26864e-06,-2.15905e-05
803,0.00051179,0.0254224,0.00611231,-0.0144086,0.00205533,0.00205533,0.00205533,0.00205533,0.00205533,0.00205533,0.00205533,0.00205533,0.00205533,-0.752055,-0.0142482,-0.988374,1.24204,0.0254224,0.00611231,-0.0144086,-0.016931,0.00408286,-6.16349e-05,0.00302073,-0.00250692,-0.00771771,0.00205533,0.000494078,-0.0325126,7.19503e-05,-0.000859777,1.72836e-05,0.000444114,-0.00145593,0.00707284,0.00181931,0.000709344,9.29963e-05,2.90513e-05,-0.00596188,0.00015286,0.0158355,-0.016931,0.00408286,-6.16349e-05,0.00302073,-0.00250692,-0.00771771,0,0,0,0,0,0,0,0,0,-0.000282452,-6.0075e-05,8.10804e-07,-0.000367785,-0.000304932,4.07373e-05,4.63099e-05,-5.65874e-06,0.000391893,0.00037161,-1.84805e-05,-1.57145e-05
804,0.00051179,-0.0235298,-0.00763776,-0.0220385,0.0528962,0.0528962,0.0528962,0.0528962,0.0528962,0.0528962,0.0528962,0.0528962,0.0528962,-0.947104,-0.713503,-0.28086,1.2186,-0.0235298,-0.00763776,-0.0220385,0.000694787,0.00265619,0.014234,-0.0111545,0.0144799,0.0169462,0.0528962,-0.161189,0.328087,-0.0286629,0.0955818,0.146603,-0.0940903,-0.319698,-0.451161,-0.00355341,-0.078233,-0.0120698,0.124629,-0.00971108,-0.0320163,0.217107,0.000694787,0.00265619,0.014234,-0.0111545,0.0144799,0.0169462,0,0,0,0,0,0,0,0,0,-0.000719219,-0.000582927,0.000555762,-0.000674938,-0.000348413,-0.00081583,0.000146006,-0.000147324,0.000302739,-0.000123626,0.000171424,0.000144194
805,0.00051179,0.00826421,0.00637477,-0.0161987,0.0362997,0.0362997,0.0362997,0.0362997,0.0362997,0.0362997,0.0362997,0.0362997,0.0362997,-0.9637,0.059877,-0.607455,1.14075,0.00826421,0.00637477,-0.0161987,-0.0035651,0.00201756,0.00579666,-0.00830435,-0.00019709,-0.000497697,0.0362997,-0.00257449,0.0306793,-0.00330418,0.00744261,-0.000158344,-0.00545589,0.0307988,-0.0387851,0.00381951,0.0061847,-0.00492657,0.001355,-0.0200021,-0.00298033,-0.015955,-0.0035651,0.00201756,0.00579666,-0.00830435,-0.00019709,-0.000497697,0,0,0,0,0,0,0,0,0,-0.000398912,-1.44259e-05,-3.8508e-05,-0.000312874,-0.000307048,2.56418e-05,-6.15214e-06,-2.48218e-05,0.000318058,0.000316282,-2.64149e-05,-1.11808e-06
806,0.00051179,0.00239367,-0.00332502,-0.00632469,0.110572,0.110572,0.110572,0.110572,0.110572,0.110572,0.110572,0.110572,0.110572,-0.860572,-0.587468,-0.852708,1.34641,0.00239367,-0.00332502,-0.00632469,-0.0053573,0.00240662,0.00245295,-0.00307673,-0.00164094,0.000226318,0.110572,0.000216678,0.00645764,-0.000776701,0.00382098,-6.97906e-07,0.000647403,-0.000597524,-0.00885061,-0.00109673,0.000738497,-0.000123937,-0.000496959,-0.00123446,-0.000416726,0.00741918,-0.0053573,0.00240662,0.00245295,-0.00307673,-0.00164094,0.000226318,0,0,0,0,0,0,0,0,0,-0.000410452,-1.47364e-05,0.000276993,-0.000393987,-0.000305945,-0.000260693,-9.90056e-06,-8.94551e-05,0.00034181,0.000424991,7.18063e-05,1.00147e-05
807,0.00051179,0.00652607,-0.00206085,0.00428113,0.0293389,0.0293389,0.0293389,0.0293389,0.0293389,0.0293389,0.0293389,0.0293389,0.0293389,-0.779339,-0.32385,0.833821,1.18638,0.00652607,-0.00206085,0.00428113,0.00356471,-0.000625715,0.00131502,-0.00721259,-0.00428647,0.00736174,0.0293389,0.000388041,-0.00865633,-3.52189e-05,-0.00207979,0.000191245,0.000371829,0.000484678,0.00193902,-0.000925617,0.000293547,-0.000636998,0.000468734,0.00384709,-0.000274483,-0.00523454,0.00356471,-0.000625715,0.00131502,-0.00721259,-0.00428647,0.00736174,0,0,0,0,0,0,0,0,0,-0.000648022,1.64155e-05,-0.000176837,-0.000261149,-0.00032022,0.000170228,-4.40393e-05,-8.90239e-06,0.000354223,0.000278017,-4.03323e-05,3.20881e-05
808,0.00051179,0.00276694,0.0125066,-0.00781094,0.117233,0.117233,0.117233,0.117233,0.117233,0.117233,0.117233,0.117233,0.117233,-0.882767,0.597355,0.410358,1.14215,0.00276694,0.0125066,-0.00781094,-0.00219542,4.36753e-05,-0.000969248,0.000343539,-3.66477e-05,0.00932658,0.117233,0.0127486,-0.224339,-0.00223827,-0.0100197,-0.0347987,-0.0222734,0.190818,0.256371,-0.0116404,-0.0424878,-0.00135555,0.0622273,0.0400009,0.0256314,-0.245234,-0.00219542,4.36753e-05,-0.000969248,0.000343539,-3.66477e-05,0.00932658,0,0,0,0,0,0,0,0,0,-0.000450902,1.32879e-05,0.000430133,-0.00044242,-0.000345463,-0.000452078,-9.59623e-05,-3.05005e-06,0.000284016,0.000209994,-1.08719e-05,0.000135312
809,0.00051179,0.001988,1.28089e-05,-0.00563435,0.0963478,0.0963478,0.0963478,0.0963478,0.0963478,0.0963478,0.0963478,0.0963478,0.0963478,-0.846348,0.475402,-0.811188,1.26504,0.001988,1.28089e-05,-0.00563435,-0.00446809,0.000435619,0.00129537,0.00231122,0.00177626,-0.000855003,0.0963478,0.000116602,0.0080049,-0.000789218,0.00454597,0.000350615,0.000384353,-0.00244461,-0.0103435,-1.02688e-05,-0.00128769,-0.000334565,0.000347484,-0.00327108,0.000162654,0.00773148,-0.00446809,0.000435619,0.00129537,0.00231122,0.00177626,-0.000855003,0,0,0,0,0,0,0,0,0,-0.000393562,-1.85926e-05,-0.000225608,-0.000381921,-0.00029462,0.000222072,1.46696e-05,7.83025e-05,0.000336349,0.000398718,-6.38855e-05,-2.96882e-07
810,0.00051179,0.0125382,0.0184235,-0.00614277,0.0576341,0.0576341,0.0576341,0.0576341,0.0576341,0.0576341,0.0576341,0.0576341,0.0576341,-0.825824,-0.942366,0.480854,1.34211,0.0125382,0.0184235,-0.00614277,-0.000852974,0.000251286,-0.00344494,0.000868549,-0.00767526,0.00378241,0.0576341,0.00155498,0.0421665,-0.000123613,-0.0269471,0.0065864,0.00272972,-0.0834889,-0.061291,-0.00181629,-0.0195736,-0.001524,-0.0240198,0.0280972,-0.00599031,0.113652,-0.000852974,0.000251286,-0.00344494,0.000868549,-0.00767526,0.00378241,0,0,0,0,0,0,0,0,0,-0.00028763,6.34114e-06,-0.000583869,-0.00057558,-0.00029468,0.000585145,-1.90759e-06,-0.000184013,0.000342883,0.000568428,9.20203e-05,-8.20836e-06
811,0.00051179,-0.0198627,-0.0209299,-0.0345479,0.0985292,0.0985292,0.0985292,0.0985292,0.0985292,0.0985292,0.0985292,0.0985292,0.0985292,-0.901471,0.721715,-0.144163,1.16375,-0.0198627,-0.0209299,-0.0345479,0.0035814,-0.0047894,0.0115257,0.0082083,-0.0193368,0.000490248,0.0985292,-0.627882,-3.87366,0.0635319,0.268945,0.633193,-0.0580967,-1.92035,3.26033,-0.0503215,0.274447,-0.0069185,0.0885081,-0.522462,0.105037,1.86639,0.0035814,-0.0047894,0.0115257,0.0082083,-0.0193368,0.000490248,0,0,0,0,0,0,0,0,0,-0.000880726,-0.00247433,-0.000221697,-0.000113246,-0.000225389,0.000809122,0.000436612,-0.00022213,0.000328019,-0.000352465,-4.04229e-05,0.00117481
812,0.00051179,0.00101236,-0.0032426,0.00563604,0.0772691,0.0772691,0.0772691,0.0772691,0.0772691,0.0772691,0.0772691,0.0772691,0.0772691,-0.922731,0.196115,-0.474645,1.05602,0.00101236,-0.0032426,0.00563604,-0.00223329,-0.00136514,-0.00113584,0.00119232,-0.00689488,-0.00119449,0.0772691,-0.00806533,0.124055,-0.00021451,-0.0133476,0.000950783,-0.013025,0.0960319,-0.126018,0.000260336,0.0218118,-0.00601443,-0.00090106,-0.00522162,-0.00973668,-0.100767,-0.00223329,-0.00136514,-0.00113584,0.00119232,-0.00689488,-0.00119449,0,0,0,0,0,0,0,0,0,-0.000455715,-2.86733e-05,-0.000127031,-0.000384256,-0.000310237,0.000111235,3.0083e-05,-8.07429e-05,0.000323147,0.000242647,-4.83502e-05,-3.18361e-05
813,0.00051179,0.00277829,0.00714096,-0.0202439,0.120877,0.120877,0.120877,0.120877,0.120877,0.120877,0.120877,0.120877,0.120877,-0.870877,0.587888,0.176438,1.06544,0.00277829,0.00714096,-0.0202439,0.00404522,-0.000394057,0.0170364,0.0103951,-0.000898755,0.00241916,0.120877,0.561281,1.61082,-0.000284903,0.0868463,-0.491836,-0.226604,-2.924,-1.12176,0.0554369,-0.235288,-0.0321681,0.251749,0.141301,0.00565014,2.6925,0.00404522,-0.000394057,0.0170364,0.0103951,-0.000898755,0.00241916,0,0,0,0,0,0,0,0,0,-0.000228174,0.00208906,0.000440587,-0.00118102,-0.000322843,-0.000447377,-0.000408411,-0.00030226,0.000262491,-0.000914652,-2.8408e-05,-0.000697224
814,0.00051179,-0.000782258,3.65642e-05,-0.0082153,0.0625991,0.0625991,0.0625991,0.0625991,0.0625991,0.0625991,0.0625991,0.0625991,0.0625991,-0.823349,-0.533264,-0.937401,1.35683,-0.000782258,3.65642e-05,-0.0082153,-0.00620754,-0.000443852,0.00119716,-0.00427687,-0.0017289,-8.17829e-05,0.0625991,0.000969246,-0.00312423,-0.000396214,0.00320552,0.000316037,0.000927232,-0.00204798,0.00359045,-0.000680448,0.000421863,3.86406e-06,-3.8125e-05,-0.00366395,-0.000700384,0.0103014,-0.00620754,-0.000443852,0.00119716,-0.00427687,-0.0017289,-8.17829e-05,0,0,0,0,0,0,0,0,0,-0.000363953,-1.35248e-05,0.000230934,-0.000390977,-0.000308895,-0.000239334,-1.21199e-05,-7.54735e-05,0.000360154,0.000412221,5.82231e-05,8.75583e-06
815,0.00051179,1.41272,0.222533,0.277611,0.00188909,0.00188909,0.00188909,0.00188909,0.00188909,0.00188909,0.00188909,0.00188909,0.00188909,-0.731086,-0.437804,-0.138304,0.8633,1.41272,0.222533,0.277611,-0.216444,0.304699,-1.2351,0.0176435,0.255117,-0.278856,0.00188909,-0.362119,35.7766,0.0617879,-3.25247,0.367087,-0.432423,30.8819,-37.5564,-0.286215,-0.244508,0.0655218,0.445042,3.27444,-0.542565,-31.6045,-0.216444,0.304699,-1.2351,0.0176435,0.255117,-0.278856,0,0,0,0,0,0,0,0,0,-0.00121026,-0.000967561,0.0017139,-0.0106582,-0.00022682,0.00195096,0.0005824,0.00263217,0.000136442,-0.00601703,0.000574218,-0.00218185
816,0.00051179,-0.0125369,0.0138944,-0.00216733,0.0495331,0.0495331,0.0495331,0.0495331,0.0495331,0.0495331,0.0495331,0.0495331,0.0495331,-0.950467,0.479426,-0.334466,1.11584,-0.0125369,0.0138944,-0.00216733,-0.00043599,-0.0011684,0.0118965,-0.00465835,0.00419724,0.0034783,0.0495331,-0.115436,0.638913,-0.00165217,0.0152686,0.0502736,-0.0866842,-0.00200765,-0.67665,-0.00897266,0.0610933,-0.0115077,0.0418844,-0.0902564,-0.0390622,-0.0377094,-0.00043599,-0.0011684,0.0118965,-0.00465835,0.00419724,0.0034783,0,0,0,0,0,0,0,0,0,-0.000578478,-0.000388877,-0.000360788,-0.000549443,-0.000305289,0.000332582,0.00012233,7.67346e-06,0.00029739,-0.000198434,-8.07785e-05,1.25658e-05
817,0.00051179,-0.0107985,0.0385616,-0.0181565,0.0446321,0.0446321,0.0446321,0.0446321,0.0446321,0.0446321,0.0446321,0.0446321,0.0446321,-0.794632,0.277078,0.103331,0.847874,-0.0107985,0.0385616,-0.0181565,0.00365686,-0.00646283,0.0191879,0.00332192,0.0121179,0.0125891,0.0446321,0.707724,6.22075,0.236774,2.35944,0.518715,-0.0751413,-3.22005,-6.72867,0.254078,0.214511,-0.0469657,-0.113524,-2.61251,-0.040274,3.35173,0.00365686,-0.00646283,0.0191879,0.00332192,0.0121179,0.0125891,0,0,0,0,0,0,0,0,0,-0.000248484,0.00247102,0.00131941,0.000479339,-0.000213766,0.000983694,0.00020112,-7.80075e-05,0.000311747,-0.00103887,-0.000270471,-0.0012243
818,0.00051179,-0.0086429,-0.0103431,-0.00738628,0.033962,0.033962,0.033962,0.033962,0.033962,0.033962,0.033962,0.033962,0.033962,-0.966038,0.662155,-0.471491,1.26253,-0.0086429,-0.0103431,-0.00738628,-0.00477977,-0.00100305,-0.00483806,-0.00253701,-0.0152029,0.0110724,0.033962,-0.0185479,0.215232,0.00268895,-0.0462439,0.000451245,-0.0177597,0.117644,-0.20704,0.00125767,0.0321647,0.00199583,0.0366641,0.0244223,-0.0129908,-0.146921,-0.00477977,-0.00100305,-0.00483806,-0.00253701,-0.0152029,0.0110724,0,0,0,0,0,0,0,0,0,-0.000594623,-8.6032e-05,-0.000500052,-0.000436118,-0.000305647,0.000516911,2.42095e-05,5.88814e-05,0.00027293,0.000210141,-0.000190952,2.10142e-05
819,0.00051179,-0.00178996,-0.0027316,0.00184056,0.0539561,0.0539561,0.0539561,0.0539561,0.0539561,0.0539561,0.0539561,0.0539561,0.0539561,-0.803956,0.275717,0.458354,0.965636,-0.00178996,-0.0027316,0.00184056,0.00421202,-0.00368357,0.00459064,0.00391709,-0.00705636,0.006406,0.0539561,0.00109477,-0.0370447,-0.000186913,0.00526155,-0.00212881,-0.00397482,0.071846,0.0409635,-0.012242,-0.0215124,-0.00100673,0.00304293,0.0189824,0.00683161,-0.0767295,0.00421202,-0.00368357,0.00459064,0.00391709,-0.00705636,0.006406,0,0,0,0,0,0,0,0,0,-0.000569485,1.47423e-05,0.000188956,-0.000304549,-0.000350589,-0.000227661,-5.34163e-05,-5.29855e-05,0.000319339,0.000310707,-2.76454e-05,5.43963e-05
820,0.00051179,-0.000751764,0.000106156,0.000266693,0.070428,0.070428,0.070428,0.070428,0.070428,0.070428,0.070428,0.070428,0.070428,-0.820428,-0.687078,0.824095,1.35067,-0.000751764,0.000106156,0.000266693,0.00147919,0.000246886,-2.9467e-05,-0.00109127,-0.00280626,0.00370624,0.070428,0.000504032,-0.000669968,0.000174947,-0.0024706,0.000271115,0.000361096,0.000247811,0.00115062,-0.000523435,-0.000619108,-0.000855362,0.000310491,0.00298355,-0.000733305,-0.000824994,0.00147919,0.000246886,-2.9467e-05,-0.00109127,-0.00280626,0.00370624,0,0,0,0,0,0,0,0,0,-0.000553302,6.06057e-06,-0.000314245,-0.000368669,-0.000319893,0.000318463,-1.19291e-05,-2.44067e-05,0.000351496,0.000371986,-1.22095e-05,1.10092e-05
821,0.00051179,-0.0740938,-0.00897847,-0.0290647,0.1082,0.1082,0.1082,0.1082,0.1082,0.1082,0.1082,0.1082,0.1082,-0.8582,0.617443,-0.0885385,1.06094,-0.0740938,-0.00897847,-0.0290647,-0.0075404,-0.00491138,0.00804392,0.0049378,-0.0185567,-0.00748032,0.1082,-0.910045,-8.35927,-0.0159751,-0.487984,0.892386,0.132652,-0.267061,7.54097,-0.090227,0.310262,-0.0156448,-0.245322,0.186701,0.183265,0.541448,-0.0075404,-0.00491138,0.00804392,0.0049378,-0.0185567,-0.00748032,0,0,0,0,0,0,0,0,0,-0.000951827,-0.00363359,-0.000316833,0.00211133,-0.000278795,0.000107969,0.000527889,-0.000390665,0.000389941,-0.000704367,4.86504e-05,0.00183326
822,0.00051179,0.0123497,-0.00419409,-0.00500654,0.021717,0.021717,0.021717,0.021717,0.021717,0.021717,0.021717,0.021717,0.021717,-0.771717,-0.230783,-0.873099,1.1879,0.0123497,-0.00419409,-0.00500654,-0.0118534,0.00364679,0.0021734,0.00391142,-0.00333917,-0.00632045,0.021717,0.000497833,-0.00704371,-0.000426762,0.0040633,-0.000329118,0.00072211,-0.00295015,-0.00497682,0.00228084,0.00698216,-0.000586901,-0.00116405,-0.00685138,0.000961591,0.00912074,-0.0118534,0.00364679,0.0021734,0.00391142,-0.00333917,-0.00632045,0,0,0,0,0,0,0,0,0,-0.000332318,-4.46368e-05,0.000123097,-0.000316828,-0.000315839,-9.08965e-05,4.31023e-05,-3.18304e-05,0.000386104,0.000345783,-7.43035e-06,-1.46534e-05
823,0.00051179,-0.0253072,0.0117774,-0.0538993,0.0261505,0.0261505,0.0261505,0.0261505,0.0261505,0.0261505,0.0261505,0.0261505,0.0261505,-0.72385,0.35456,0.04813,0.807458,-0.0253072,0.0117774,-0.0538993,0.0362914,-0.0388323,0.0483733,-0.0170008,-0.0413322,-0.0117203,0.0261505,1.07504,7.15094,0.408084,3.74088,0.154802,0.25559,-4.68253,-7.28044,0.412563,0.560418,0.237017,0.0265064,-4.31307,0.183015,4.70993,0.0362914,-0.0388323,0.0483733,-0.0170008,-0.0413322,-0.0117203,0,0,0,0,0,0,0,0,0,-8.91089e-05,0.00362027,0.00180154,0.00870764,-0.000157708,0.00189098,4.1446e-05,0.00279557,0.000167064,-0.005668,-0.000838729,-0.00107989
824,0.00051179,0.00109786,-0.00320494,-0.000810241,0.0805285,0.0805285,0.0805285,0.0805285,0.0805285,0.0805285,0.0805285,0.0805285,0.0805285,-0.830528,-0.783402,-0.777558,1.38134,0.00109786,-0.00320494,-0.000810241,-0.00338413,0.0023331,0.00273105,-0.00116525,-0.00229816,0.00171996,0.0805285,0.000974491,0.0017214,-0.000773124,0.00401926,-1.7635e-05,0.000399407,-0.00704064,-0.00280163,-0.00016992,0.0041851,-0.000549095,3.5737e-05,-0.00499942,0.000998642,0.00781514,-0.00338413,0.0023331,0.00273105,-0.00116525,-0.00229816,0.00171996,0,0,0,0,0,0,0,0,0,-0.000504382,-1.08641e-05,0.000340318,-0.00046965,-0.00032177,-0.000324718,-5.49176e-06,-0.000136374,0.000338972,0.000500955,0.000107901,1.47771e-05
825,0.00051179,-0.00807304,0.00613414,0.00310046,0.0866833,0.0866833,0.0866833,0.0866833,0.0866833,0.0866833,0.0866833,0.0866833,0.0866833,-0.913317,-0.441631,0.551488,1.1547,-0.00807304,0.00613414,0.00310046,-0.000871253,0.000849763,-0.000943132,-0.000480636,0.00197893,0.00227318,0.0866833,0.00412728,-0.0486135,-0.00052803,0.0114164,-0.00457202,-0.00595151,0.0567281,0.0612586,0.00544967,0.011181,0.0008603,0.00644229,-0.0287315,0.00820763,-0.0662708,-0.000871253,0.000849763,-0.000943132,-0.000480636,0.00197893,0.00227318,0,0,0,0,0,0,0,0,0,-0.000550337,-5.30356e-06,-0.000302807,-0.000254542,-0.000351066,0.000306025,3.26146e-06,3.83143e-05,0.000317335,0.000185595,-9.922e-06,3.08203e-05
826,0.00051179,-0.0284462,-0.0184993,-0.0290747,0.0624862,0.0624862,0.0624862,0.0624862,0.0624862,0.0624862,0.0624862,0.0624862,0.0624862,-0.812486,0.421524,0.120635,0.923238,-0.0284462,-0.0184993,-0.0290747,0.00130068,-0.0129779,0.0117122,0.0182699,0.000238063,0.0276982,0.0624862,1.01078,7.85259,0.188315,1.57852,-0.384671,-0.222189,-5.47967,-7.43947,0.222018,-0.0625407,-0.0700227,0.0447055,-1.49748,-0.0209507,5.46404,0.00130068,-0.0129779,0.0117122,0.0182699,0.000238063,0.0276982,0,0,0,0,0,0,0,0,0,-0.000116073,0.00360758,0.00117828,-0.000641969,-0.000238175,0.000575097,-0.000251388,-0.000467245,0.000273928,-0.0014628,-0.000230601,-0.00141909
827,0.00051179,-0.00193426,0.0027211,0.00102887,0.044021,0.044021,0.044021,0.044021,0.044021,0.044021,0.044021,0.044021,0.044021,-0.794021,0.428601,0.415869,0.993537,-0.00193426,0.0027211,0.00102887,0.00757814,-0.00560265,0.00779215,-0.00070278,-0.00772054,0.010675,0.044021,0.000876382,-0.0427426,-0.000515573,-0.00537986,-0.00309778,-0.0053648,0.136374,0.0477746,-0.0200957,-0.0287526,-0.00032195,0.0197079,0.0314114,0.0138088,-0.157111,0.00757814,-0.00560265,0.00779215,-0.00070278,-0.00772054,0.010675,0,0,0,0,0,0,0,0,0,-0.000516318,2.82651e-05,0.000313446,-0.000394955,-0.000363583,-0.000374628,-0.000118,-5.78131e-05,0.000315048,0.000419229,-2.26118e-05,0.000108411
828,0.00051179,0.00644428,-0.00365802,0.00740849,0.0273989,0.0273989,0.0273989,0.0273989,0.0273989,0.0273989,0.0273989,0.0273989,0.0273989,-0.788199,-0.235851,0.972601,1.27391,0.00644428,-0.00365802,0.00740849,0.00969712,0.00284464,0.00299235,0.00108185,-0.00179021,0.0114177,0.0273989,0.000780001,-0.00403153,-0.00042244,-0.00141784,-0.000118018,0.000459053,-0.00131758,-0.00229473,-0.00138124,0.00156417,-8.30367e-06,0.000363577,0.00351169,-0.00122702,-0.00645449,0.00969712,0.00284464,0.00299235,0.00108185,-0.00179021,0.0114177,0,0,0,0,0,0,0,0,0,-0.00069657,2.88836e-05,-0.00011451,-0.000246315,-0.000323677,0.000138732,-2.49989e-05,1.6744e-05,0.000352465,0.000280829,-3.47291e-05,2.74513e-05
829,0.00051179,-0.00273819,-0.00146747,-0.00223645,0.0918815,0.0918815,0.0918815,0.0918815,0.0918815,0.0918815,0.0918815,0.0918815,0.0918815,-0.901633,0.055522,-0.908118,1.2809,-0.00273819,-0.00146747,-0.00223645,-0.00849205,-0.00138889,0.00272195,-0.00563958,-0.00162745,-0.00109711,0.0918815,0.00074698,0.00165275,-0.000711583,0.00361384,0.000118877,0.00113536,-0.00309207,0.000966563,-0.0012445,0.000812193,-5.99343e-05,0.000476189,-0.00295856,-0.00113336,0.00485233,-0.00849205,-0.00138889,0.00272195,-0.00563958,-0.00162745,-0.00109711,0,0,0,0,0,0,0,0,0,-0.000305571,-1.9272e-05,-3.10667e-05,-0.000307453,-0.000305111,1.0062e-05,-1.4967e-05,1.1138e-05,0.000337541,0.000346026,-2.80119e-05,8.30108e-06
830,0.00051179,-0.00508853,0.00182984,0.00358018,0.0494345,0.0494345,0.0494345,0.0494345,0.0494345,0.0494345,0.0494345,0.0494345,0.0494345,-0.950566,0.391924,0.864625,1.34341,-0.00508853,0.00182984,0.00358018,-0.0017516,-0.000636261,-0.00260006,0.00899328,-0.00289796,0.00414928,0.0494345,0.000862196,-0.00104268,0.000551827,-0.00639486,0.000309756,0.000116318,0.0068398,0.00582145,0.000327913,-0.00177895,-0.000608321,-3.73654e-05,0.00634396,-0.00129664,-0.0103826,-0.0017516,-0.000636261,-0.00260006,0.00899328,-0.00289796,0.00414928,0,0,0,0,0,0,0,0,0,-0.000654809,-1.74675e-05,0.000168653,-0.000297164,-0.000322485,-0.000169497,3.35855e-05,8.28884e-06,0.000291608,0.000272327,-4.33517e-05,1.24269e-06
831,0.00051179,-0.0270823,-0.00698239,-0.00152387,0.0756148,0.0756148,0.0756148,0.0756148,0.0756148,0.0756148,0.0756148,0.0756148,0.0756148,-0.905542,-0.924385,-0.388126,1.35098,-0.0270823,-0.00698239,-0.00152387,-0.00622788,0.00908598,-0.0141205,-0.000559275,0.000949267,-0.0154433,0.0756148,0.00852735,-0.0299225,-0.00653385,0.0634626,-0.0645097,0.0119307,0.0175544,0.121514,0.0025769,0.0513851,-0.00914267,-0.0958169,-0.107865,0.0131088,0.0797864,-0.00622788,0.00908598,-0.0141205,-0.000559275,0.000949267,-0.0154433,0,0,0,0,0,0,0,0,0,-0.000791661,9.20968e-06,0.000685985,-0.000694072,-0.000366086,-0.000660464,7.80046e-06,-0.00033062,0.000274971,0.000672174,0.000248686,-1.39599e-05
832,0.00051179,0.000135742,0.0123524,-0.0200604,0.0346829,0.0346829,0.0346829,0.0346829,0.0346829,0.0346829,0.0346829,0.0346829,0.0346829,-0.965317,0.517024,-0.581118,1.2397,0.000135742,0.0123524,-0.0200604,-0.00355071,-0.00145172,-0.00529124,-0.00985959,-0.00648454,0.00918055,0.0346829,-0.00376771,0.0624241,-0.00267219,-4.31962e-05,0.00124045,-0.00646166,0.045236,-0.0638003,0.0067075,0.00337801,-0.00228002,0.0158071,-0.0156872,-0.00449967,-0.0409828,-0.00355071,-0.00145172,-0.00529124,-0.00985959,-0.00648454,0.00918055,0,0,0,0,0,0,0,0,0,-0.000491023,-2.99118e-05,-0.000330763,-0.000373154,-0.00030973,0.000289524,-9.0801e-06,2.28466e-05,0.000291422,0.000255625,-0.000110492,3.00847e-05
833,0.00051179,-0.000618167,0.00236071,-0.00325324,0.0656111,0.0656111,0.0656111,0.0656111,0.0656111,0.0656111,0.0656111,0.0656111,0.0656111,-0.934389,-0.139143,-0.804363,1.24074,-0.000618167,0.00236071,-0.00325324,-0.00473682,0.00171861,0.00167732,-0.00648211,-0.00223369,-0.000267679,0.0656111,-0.00113688,0.0167608,-0.00162541,0.00972112,-0.000343921,0.000290703,0.00150463,-0.0157987,-0.00107667,0.00105365,-0.00105149,-0.000199591,-0.0131355,-0.0013495,0.00194821,-0.00473682,0.00171861,0.00167732,-0.00648211,-0.00223369,-0.000267679,0,0,0,0,0,0,0,0,0,-0.000340708,-1.20035e-05,7.70384e-05,-0.000310848,-0.000301475,-7.61064e-05,-2.04289e-05,-2.8295e-05,0.000330515,0.000330529,-4.55677e-06,9.2791e-06
834,0.00051179,-0.00223041,-0.00447544,-0.0209208,0.0595717,0.0595717,0.0595717,0.0595717,0.0595717,0.0595717,0.0595717,0.0595717,0.0595717,-0.809572,-0.49019,-0.249855,0.978836,-0.00223041,-0.00447544,-0.0209208,-0.0186453,0.0088152,-0.0259117,-0.00499807,0.0258715,-0.00910781,0.0595717,-0.0658284,2.43457,0.000304706,-0.156981,0.0461761,-0.117309,2.39879,-2.47852,0.0190698,-0.180531,0.00249755,0.119493,0.341988,-0.163395,-2.49737,-0.0186453,0.0088152,-0.0259117,-0.00499807,0.0258715,-0.00910781,0,0,0,0,0,0,0,0,0,-0.000722475,-0.000142094,0.000527802,-0.00205612,-0.000364089,-0.000436603,0.000350633,0.000195585,0.000313386,0.000623916,8.81058e-05,-0.000582237
835,0.00051179,0.00026536,-0.0270594,-0.0164005,0.0727138,0.0727138,0.0727138,0.0727138,0.0727138,0.0727138,0.0727138,0.0727138,0.0727138,-0.822714,0.871004,-0.199485,1.21462,0.00026536,-0.0270594,-0.0164005,-0.0317166,0.0159777,0.00992955,0.00858275,0.0352868,-0.00202688,0.0727138,-0.216574,2.15199,0.0689382,-0.290519,-0.0728205,-0.137041,-0.870478,-2.07943,0.00868772,-0.0907572,0.0883261,-0.081569,0.408335,-0.00301161,0.968448,-0.0317166,0.0159777,0.00992955,0.00858275,0.0352868,-0.00202688,0,0,0,0,0,0,0,0,0,-0.000996895,-0.000969079,-0.000369663,-0.00199229,-7.87023e-05,0.00121882,0.000358728,0.00065692,0.00032714,0.000721172,0.00057921,0.000247183
836,0.00051179,0.00626486,-0.00199827,0.0030063,0.000265803,0.000265803,0.000265803,0.000265803,0.000265803,0.000265803,0.000265803,0.000265803,0.000265803,-0.845248,0.0726508,0.999734,1.31118,0.00626486,-0.00199827,0.0030063,0.00174475,-0.00156079,-1.47969e-05,-0.000903472,0.000273194,0.00685695,0.000265803,0.000737324,-0.00214187,-0.000423156,-0.00126701,9.80432e-05,0.000331156,0.000962932,-0.00422103,-0.00115763,-0.000180618,9.67877e-05,-0.000154022,0.0034459,-0.00131711,-0.00381521,0.00174475,-0.00156079,-1.47969e-05,-0.000903472,0.000273194,0.00685695,0,0,0,0,0,0,0,0,0,-0.000721313,5.5325e-06,2.24109e-06,-0.000269331,-0.000333661,-2.20805e-05,-1.71834e-05,2.19124e-05,0.000330023,0.000272494,-1.82126e-05,2.08213e-05
837,0.00051179,-0.00511881,-0.000685706,-0.0049207,0.0135862,0.0135862,0.0135862,0.0135862,0.0135862,0.0135862,0.0135862,0.0135862,0.0135862,-0.900566,0.352906,-0.986414,1.38151,-0.00511881,-0.000685706,-0.0049207,-0.00495402,0.000469215,0.00093605,-0.00915053,-0.00178245,-0.00115351,0.0135862,0.00227942,-0.012886,-0.000214688,0.00133865,-0.000369782,0.000435747,0.00174565,0.0183746,-0.00110838,0.00143207,0.000139697,9.67601e-05,-0.00208502,-0.00154625,0.00307829,-0.00495402,0.000469215,0.00093605,-0.00915053,-0.00178245,-0.00115351,0,0,0,0,0,0,0,0,0,-0.000306398,4.66539e-06,-0.00014024,-0.000370556,-0.00031417,0.000142785,-3.32562e-05,5.00129e-05,0.000322625,0.000384274,-6.64404e-05,4.53961e-06
838,0.00051179,-0.00288994,0.000601437,0.00336217,0.115135,0.115135,0.115135,0.115135,0.115135,0.115135,0.115135,0.115135,0.115135,-0.865135,-0.623721,0.50202,1.17878,-0.00288994,0.000601437,0.00336217,-0.0019942,0.00105215,-0.000331713,-0.00542217,-0.00354029,0.00859857,0.115135,0.00324197,-0.0503105,0.000781842,-0.00707604,-0.00619147,-0.00573985,0.0751153,0.0593919,-0.00144731,0.00389198,-0.00188208,0.0157136,0.00258263,0.00819248,-0.094191,-0.0019942,0.00105215,-0.000331713,-0.00542217,-0.00354029,0.00859857,0,0,0,0,0,0,0,0,0,-0.000468247,-6.64884e-06,-0.000444074,-0.00033009,-0.000328893,0.000462414,-4.72351e-05,-3.93183e-05,0.000326715,0.000269375,-1.49055e-05,7.10676e-05
839,0.00051179,-0.0159302,0.0384645,0.143169,0.00254417,0.00254417,0.00254417,0.00254417,0.00254417,0.00254417,0.00254417,0.00254417,0.00254417,-0.747456,0.347714,-0.0959086,0.829936,-0.0159302,0.0384645,0.143169,0.0543073,0.0106336,0.144081,0.0176668,0.00976893,-0.0052793,0.00254417,-1.59126,-17.9908,-0.474519,-5.32761,-0.265788,-0.344453,-8.54659,18.2725,-0.542183,-0.696274,-0.105565,-0.110653,5.98542,-0.299667,8.51407,0.0543073,0.0106336,0.144081,0.0176668,0.00976893,-0.0052793,0,0,0,0,0,0,0,0,0,-0.00115668,-0.00495427,-0.00237577,0.000901156,-0.000505919,-0.00226308,0.000107894,-0.000309529,0.000222817,-0.00290488,-0.000648429,0.00120575
840,0.00051179,0.0308897,0.0315657,-0.00579087,0.0443444,0.0443444,0.0443444,0.0443444,0.0443444,0.0443444,0.0443444,0.0443444,0.0443444,-0.794344,-0.936297,0.431839,1.30158,0.0308897,0.0315657,-0.00579087,-0.00374818,-0.000338096,0.0056436,-0.00222171,-0.0163108,-0.0119399,0.0443444,0.00240161,0.00371988,-0.000218384,-0.0308801,0.00656101,0.00135345,-0.145303,-0.0411706,-0.0032195,-0.0518259,-0.00199131,-0.0320457,0.0511403,-0.0105524,0.183139,-0.00374818,-0.000338096,0.0056436,-0.00222171,-0.0163108,-0.0119399,0,0,0,0,0,0,0,0,0,-0.000262029,2.70518e-05,-0.000622791,-0.000592977,-0.000264281,0.000617226,6.57868e-06,-0.000279809,0.000364959,0.000662948,9.67882e-05,-7.86768e-05
841,0.00051179,-0.00109911,-0.000814773,0.00242993,0.0821845,0.0821845,0.0821845,0.0821845,0.0821845,0.0821845,0.0821845,0.0821845,0.0821845,-0.832184,-0.669815,0.876641,1.38191,-0.00109911,-0.000814773,0.00242993,-0.000516015,0.000189452,-0.000759546,-0.000293823,-0.00195992,0.00377069,0.0821845,0.000826851,-0.000320263,-1.5609e-05,-0.00253369,0.000184046,0.000435963,-0.000370063,0.00123532,-0.000671761,-0.000378044,-0.000660437,0.000476909,0.00372651,-0.000855651,-0.00253678,-0.000516015,0.000189452,-0.000759546,-0.000293823,-0.00195992,0.00377069,0,0,0,0,0,0,0,0,0,-0.000577994,-1.05385e-06,-0.000288753,-0.000371946,-0.000324721,0.000290491,-7.43595e-06,-1.87677e-05,0.000347406,0.00036871,-7.43593e-06,1.19672e-05
842,0.00051179,-0.058075,-0.0211766,-0.0587133,0.0576765,0.0576765,0.0576765,0.0576765,0.0576765,0.0576765,0.0576765,0.0576765,0.0576765,-0.942324,-0.930346,-0.12786,1.33036,-0.058075,-0.0211766,-0.0587133,0.0225478,0.0185938,0.00161174,-0.00617681,-0.00327875,0.0116173,0.0576765,-0.281609,-2.43428,-0.0716158,-0.393482,-0.641528,0.269354,-0.537391,3.13388,-0.0031745,-0.0215293,0.0113079,0.0849127,0.436188,0.162528,0.511191,0.0225478,0.0185938,0.00161174,-0.00617681,-0.00327875,0.0116173,0,0,0,0,0,0,0,0,0,-0.000849225,-0.00118653,0.000828923,0.00123335,-0.000415737,-0.00135914,6.20126e-05,-0.000100525,0.000334494,0.00147631,0.000180817,0.000979497
843,0.00051179,-0.00222338,-0.00221417,0.00260942,0.101085,0.101085,0.101085,0.101085,0.101085,0.101085,0.101085,0.101085,0.101085,-0.898915,-0.661501,-0.611147,1.27245,-0.00222338,-0.00221417,0.00260942,-0.00356315,0.00172189,0.00169128,-0.00337747,0.000144754,0.000869289,0.101085,-4.32581e-05,0.0335023,-0.00186669,0.0120008,-0.00210435,-0.00219428,0.0208351,-0.0291745,0.00393908,0.0120966,-0.00240884,-0.00191816,-0.0218832,-0.0014531,-0.0215263,-0.00356315,0.00172189,0.00169128,-0.00337747,0.000144754,0.000869289,0,0,0,0,0,0,0,0,0,-0.000531651,-1.38452e-05,0.000399331,-0.00041522,-0.000318402,-0.000400779,6.99488e-06,-0.000121993,0.000320651,0.00041019,9.93522e-05,1.26782e-06
844,0.00051179,-0.0244184,-0.0205171,-0.0230519,0.103392,0.103392,0.103392,0.103392,0.103392,0.103392,0.103392,0.103392,0.103392,-0.896608,-0.700557,-0.125329,1.14472,-0.0244184,-0.0205171,-0.0230519,0.0101906,0.00893019,0.0121203,-0.000375226,0.00116455,0.00481191,0.103392,-0.682707,-5.07569,-0.0646475,-0.0847525,0.697515,-0.0035878,-1.50225,4.40259,-0.0486073,-0.302766,0.010529,-0.00421395,0.408036,0.131132,1.52951,0.0101906,0.00893019,0.0121203,-0.000375226,0.00116455,0.00481191,0,0,0,0,0,0,0,0,0,-0.000869133,-0.00268694,0.000141256,0.000400692,-0.000400567,-0.000698429,0.000430728,9.50292e-05,0.000381514,-0.000315367,2.19063e-05,0.00135536
845,0.00051179,-0.0714171,-0.0280368,0.0105564,0.0250036,0.0250036,0.0250036,0.0250036,0.0250036,0.0250036,0.0250036,0.0250036,0.0250036,-0.974996,-0.325416,0.0931161,1.03208,-0.0714171,-0.0280368,0.0105564,-0.00706932,-0.00451685,-0.00140868,0.00978236,-0.0201678,0.0295692,0.0250036,0.247849,1.46049,-0.0170352,-0.516385,-0.0613107,0.0542861,0.169508,-1.32776,0.0829117,0.0158421,-0.0295867,-0.0252805,0.528579,-0.051434,-0.154784,-0.00706932,-0.00451685,-0.00140868,0.00978236,-0.0201678,0.0295692,0,0,0,0,0,0,0,0,0,-0.000518091,0.000844349,-0.000101139,0.000353222,-0.000402803,-0.000114382,0.000103922,-0.000242067,0.00039652,0.000175552,-0.000255477,-0.000468872
846,0.00051179,0.00033298,0.000637937,0.0028278,0.0854361,0.0854361,0.0854361,0.0854361,0.0854361,0.0854361,0.0854361,0.0854361,0.0854361,-0.914564,-0.445642,0.833937,1.31548,0.00033298,0.000637937,0.0028278,-0.0031641,-0.0018032,-0.00169092,0.0050421,0.00131293,0.00390021,0.0854361,0.00077422,-0.00522134,0.000361271,-0.00469168,-0.000646465,0.000136748,0.00591829,0.00553483,-0.000345455,0.000258918,-0.000479131,0.000353552,0.00379483,-0.00076085,-0.00909964,-0.0031641,-0.0018032,-0.00169092,0.0050421,0.00131293,0.00390021,0,0,0,0,0,0,0,0,0,-0.00062295,-1.82334e-05,-0.000230762,-0.000278187,-0.000344658,0.000216342,1.71992e-05,1.10361e-05,0.000320405,0.000262645,-2.69812e-06,9.41282e-06
847,0.00051179,-0.00975492,-0.00321733,0.00532981,0.104737,0.104737,0.104737,0.104737,0.104737,0.104737,0.104737,0.104737,0.104737,-0.854737,0.59315,0.526689,1.16611,-0.00975492,-0.00321733,0.00532981,-0.00403982,-0.000527706,-0.000183459,-0.00422637,0.00265517,0.0101068,0.104737,0.00253363,-0.0446661,-0.00130426,0.0196907,-0.00273526,-0.00459785,0.0669767,0.0571563,-0.00513794,-0.00319751,0.000493188,0.0077476,-0.0132759,0.00669088,-0.0800541,-0.00403982,-0.000527706,-0.000183459,-0.00422637,0.00265517,0.0101068,0,0,0,0,0,0,0,0,0,-0.000499241,-1.437e-05,0.000380285,-0.000365442,-0.000355357,-0.000398605,-5.36606e-05,3.68598e-05,0.000304066,0.000317629,-5.37621e-06,7.71493e-05
848,0.00051179,0.00499117,0.00373732,-0.00100458,0.0642791,0.0642791,0.0642791,0.0642791,0.0642791,0.0642791,0.0642791,0.0642791,0.0642791,-0.814279,-0.547084,0.321053,1.03219,0.00499117,0.00373732,-0.00100458,-0.00301131,0.00420144,-0.00834312,-0.00940281,0.00799568,0.0110094,0.0642791,0.0112114,-0.47488,0.00296379,-0.00321873,-0.028023,-0.029212,0.654154,0.497912,-0.0375738,0.0830563,0.00189653,0.102396,-0.0835749,0.0528312,-0.755546,-0.00301131,0.00420144,-0.00834312,-0.00940281,0.00799568,0.0110094,0,0,0,0,0,0,0,0,0,-0.00042294,1.20805e-05,-0.000446785,-0.000811081,-0.000318402,0.000518437,-0.000263803,0.000110721,0.000312611,0.00043553,-1.17988e-05,0.000290283
849,0.00051179,0.00269339,-0.00454962,-0.00130933,0.0706953,0.0706953,0.0706953,0.0706953,0.0706953,0.0706953,0.0706953,0.0706953,0.0706953,-0.929305,0.91409,-0.846081,1.55403,0.00269339,-0.00454962,-0.00130933,0.000576215,-0.00168246,0.00239227,-0.00221909,-0.00643581,-0.00253578,0.0706953,0.00190766,-0.00815059,-0.000696592,0.00142945,0.00225811,0.00130688,-0.00495763,0.00319908,-0.000688152,0.000337673,0.000280043,0.00104404,0.0027825,-0.000816531,0.00522292,0.000576215,-0.00168246,0.00239227,-0.00221909,-0.00643581,-0.00253578,0,0,0,0,0,0,0,0,0,-0.00050322,1.67759e-05,-0.000323917,-0.000557214,-0.00032183,0.000300127,-1.01797e-05,9.11552e-05,0.000243038,0.000594205,-0.000152713,-1.2405e-05
850,0.00051179,0.0105749,-0.0297432,-0.0747442,0.000596338,0.000596338,0.000596338,0.000596338,0.000596338,0.000596338,0.000596338,0.000596338,0.000596338,-0.999404,-0.50939,0.11481,1.12759,0.0105749,-0.0297432,-0.0747442,-0.0476965,-0.0203341,0.0335044,0.037054,-0.0108972,0.05328,0.000596338,0.363501,1.86618,0.0232468,-0.328051,-0.259911,0.0308985,0.21319,-1.61684,0.0740352,0.103643,-0.0079964,-0.0942087,0.254152,-0.0418541,-0.0442374,-0.0476965,-0.0203341,0.0335044,0.037054,-0.0108972,0.05328,0,0,0,0,0,0,0,0,0,-0.000504278,0.00107327,-0.000231761,0.000628175,-0.000421876,0.000260888,4.96923e-05,-0.00014335,0.000416063,1.58536e-05,-4.55861e-05,-0.000448624
851,0.00051179,0.00827733,-0.00733072,0.0132219,0.0545811,0.0545811,0.0545811,0.0545811,0.0545811,0.0545811,0.0545811,0.0545811,0.0545811,-0.945419,-0.272992,-0.307259,1.0309,0.00827733,-0.00733072,0.0132219,-0.00917082,-0.00390418,-0.00103214,-0.00319656,-0.00761137,0.000183105,0.0545811,-0.0803528,0.409392,0.0153284,-0.0976034,-0.0453494,-0.0601709,-0.0107345,-0.37232,-0.0327203,-0.0150758,0.0131797,-0.0660284,0.12001,-0.021017,0.063541,-0.00917082,-0.00390418,-0.00103214,-0.00319656,-0.00761137,0.000183105,0,0,0,0,0,0,0,0,0,-0.000536382,-0.00027884,0.000177331,-0.000525349,-0.000311667,-6.3089e-05,-1.08062e-05,5.63052e-05,0.000327624,-8.66817e-05,-6.21667e-07,6.46084e-05
852,0.00051179,-0.0126279,0.0134355,0.0214736,0.0243716,0.0243716,0.0243716,0.0243716,0.0243716,0.0243716,0.0243716,0.0243716,0.0243716,-0.774372,0.298183,-0.494674,0.966057,-0.0126279,0.0134355,0.0214736,-0.00700315,-0.00596898,0.00257304,0.00798504,0.00173994,0.00555416,0.0243716,-0.000272974,0.0172051,-0.000302009,0.00864919,-0.000173004,-0.000942703,0.0227388,-0.00440411,0.0256806,-0.0090771,-0.00523341,0.00567683,-0.0130076,-0.00661546,-0.0498893,-0.00700315,-0.00596898,0.00257304,0.00798504,0.00173994,0.00555416,0,0,0,0,0,0,0,0,0,-0.000470437,-6.56055e-05,-0.000205265,-0.000382315,-0.000275487,0.000142555,0.000139103,6.35374e-06,0.000367038,0.000398619,-4.12884e-05,-3.45314e-05
853,0.00051179,0.000857322,0.00612435,0.00846981,0.0833204,0.0833204,0.0833204,0.0833204,0.0833204,0.0833204,0.0833204,0.0833204,0.0833204,-0.83332,0.811361,-0.52729,1.27701,0.000857322,0.00612435,0.00846981,-0.00241962,-0.00480558,0.000228677,0.000403635,0.0128879,0.000141667,0.0833204,0.000504509,0.0132778,-0.0010001,6.46062e-05,-0.000611482,-0.00106421,0.0307036,-0.0135237,0.0070145,-0.0406951,0.000922642,0.000942972,0.0345061,-0.000625152,-0.0401163,-0.00241962,-0.00480558,0.000228677,0.000403635,0.0128879,0.000141667,0,0,0,0,0,0,0,0,0,-0.000646003,-1.53673e-05,-0.0005161,-0.000598247,-0.000242943,0.000458044,3.12989e-05,0.000229965,0.000314452,0.000589891,-9.18588e-05,-8.20919e-06
854,0.00051179,0.019667,0.0214237,0.0293658,0.000807477,0.000807477,0.000807477,0.000807477,0.000807477,0.000807477,0.000807477,0.000807477,0.000807477,-0.750807,-0.603363,0.386288,1.03778,0.019667,0.0214237,0.0293658,0.0115316,-0.00298301,0.0299375,-0.0421834,-0.0179239,-0.0484535,0.000807477,3.38703e-05,-0.0200855,0.000591047,-0.038033,-0.00184502,0.000136107,0.117349,0.00226344,-0.0196741,-0.0117306,-0.000979026,0.0169613,0.0283399,0.0177004,-0.163676,0.0115316,-0.00298301,0.0299375,-0.0421834,-0.0179239,-0.0484535,0,0,0,0,0,0,0,0,0,-0.000431605,0.000151341,-0.000482888,-0.00046877,-0.000269616,0.000458969,-0.000215774,-0.000129696,0.000364743,0.000769507,-5.93337e-05,-6.02521e-05
855,0.00051179,0.0112926,0.00045245,-0.0141877,0.0830547,0.0830547,0.0830547,0.0830547,0.0830547,0.0830547,0.0830547,0.0830547,0.0830547,-0.916945,-0.0761811,0.440896,1.02029,0.0112926,0.00045245,-0.0141877,-0.00128666,-0.000405212,0.000884578,0.00397498,-0.000423285,0.00315923,0.0830547,0.00837912,-0.0931274,-0.000167064,-0.0182507,0.00395878,-0.0117129,0.0812933,0.0778761,0.0208501,0.00715496,0.00250333,-0.0132474,0.0106433,0.0133142,-0.0538581,-0.00128666,-0.000405212,0.000884578,0.00397498,-0.000423285,0.00315923,0,0,0,0,0,0,0,0,0,-0.000590272,-2.03734e-05,-5.38128e-05,-0.00026934,-0.000347937,4.809e-05,6.82896e-05,4.99641e-05,0.000306278,0.000161058,-2.91637e-05,2.65314e-05
856,0.00051179,0.0209654,-0.0147526,-0.0375186,0.00592087,0.00592087,0.00592087,0.00592087,0.00592087,0.00592087,0.00592087,0.00592087,0.00592087,-0.994079,-0.497641,0.290782,1.14908,0.0209654,-0.0147526,-0.0375186,0.010271,0.00863184,0.0195797,0.0103844,-0.00123293,-0.015587,0.00592087,0.183914,-0.375791,-0.000801913,-0.106149,-0.123973,-0.0878689,-0.199809,0.478799,0.0554024,0.116185,0.0146102,0.0838538,0.00471624,0.01881,0.153474,0.010271,0.00863184,0.0195797,0.0103844,-0.00123293,-0.015587,0,0,0,0,0,0,0,0,0,-0.000481613,0.000667238,-0.000359723,-0.00012021,-0.000408882,0.000438022,2.52478e-05,0.000155538,0.000337467,-0.000562683,-2.17651e-05,-0.000287571
857,0.00051179,0.00761801,-0.00212163,-0.00280994,0.0883439,0.0883439,0.0883439,0.0883439,0.0883439,0.0883439,0.0883439,0.0883439,0.0883439,-0.838344,0.886669,0.577563,1.35003,0.00761801,-0.00212163,-0.00280994,-0.000253226,-0.000820365,-0.000960391,0.000680697,0.00878299,0.00233374,0.0883439,0.00131597,-0.0128531,-0.000365727,0.0085253,0.000810578,-0.000458363,0.012499,0.00442452,-0.00155099,0.00916298,0.000206956,-0.00267718,-0.0155667,-0.000574384,-0.00701192,-0.000253226,-0.000820365,-0.000960391,0.000680697,0.00878299,0.00233374,0,0,0,0,0,0,0,0,0,-0.000398844,3.06162e-06,0.000440803,-0.000536254,-0.000367576,-0.000452664,-6.60354e-06,0.000122916,0.000309996,0.000522067,-3.30162e-05,6.54469e-06
858,0.00051179,-0.00693659,-0.00293311,0.00434014,0.0340773,0.0340773,0.0340773,0.0340773,0.0340773,0.0340773,0.0340773,0.0340773,0.0340773,-0.965923,0.1098,-0.948995,1.35855,-0.00693659,-0.00293311,0.00434014,-0.0036767,-0.000364582,0.00285892,-0.0116859,-0.00148808,0.00238965,0.0340773,0.00185724,-0.00520979,-0.000657044,0.00457307,0.000195855,0.00109858,-0.0027235,0.0119505,-0.00185768,0.00166787,0.000123375,0.000552737,-0.00330782,-0.00171297,-0.00216937,-0.0036767,-0.000364582,0.00285892,-0.0116859,-0.00148808,0.00238965,0,0,0,0,0,0,0,0,0,-0.000294782,7.84847e-06,-5.62706e-05,-0.00031328,-0.000309044,4.60543e-05,-5.0772e-05,2.25346e-05,0.000312701,0.000352855,-3.61816e-05,2.03291e-05
859,0.00051179,0.00390029,0.00113203,-0.00110605,0.113214,0.113214,0.113214,0.113214,0.113214,0.113214,0.113214,0.113214,0.113214,-0.886786,0.281122,-0.722169,1.17769,0.00390029,0.00113203,-0.00110605,-0.00369308,-0.00149735,0.00029058,0.000302028,-0.00163345,-0.0019314,0.113214,-0.000463113,0.0141426,-0.00166696,0.0132372,0.00102811,-0.000706237,0.000916065,-0.019071,0.00202162,-0.00254428,-0.000965855,0.00320206,-0.0118249,-0.000209752,-0.00301207,-0.00369308,-0.00149735,0.00029058,0.000302028,-0.00163345,-0.0019314,0,0,0,0,0,0,0,0,0,-0.000386648,-1.61959e-05,-0.000160933,-0.000334764,-0.000300163,0.00012929,1.62033e-05,3.20548e-05,0.000332937,0.000330608,-5.80479e-05,-6.12075e-06
860,0.00051179,0.00592301,-0.000704959,0.000809325,0.0344744,0.0344744,0.0344744,0.0344744,0.0344744,0.0344744,0.0344744,0.0344744,0.0344744,-0.784474,-0.687027,0.869278,1.35759,0.00592301,-0.000704959,0.000809325,0.00190103,0.00079141,-0.00207895,-0.0026897,-0.00534461,0.00523881,0.0344744,0.000672534,-0.00666035,-0.00010144,-0.00204495,1.10264e-05,0.000419904,0.000693464,0.000726312,-0.000900822,-0.000825983,-0.000668116,0.0001734,0.00357589,-0.000767354,-0.00167619,0.00190103,0.00079141,-0.00207895,-0.0026897,-0.00534461,0.00523881,0,0,0,0,0,0,0,0,0,-0.000569895,8.88184e-06,-0.000295394,-0.000377762,-0.000309849,0.000302294,-2.19386e-05,-3.38696e-05,0.000365414,0.000361171,-2.62576e-05,1.83713e-05
861,0.00051179,-0.0163147,-0.00483932,-0.0307317,0.0408919,0.0408919,0.0408919,0.0408919,0.0408919,0.0408919,0.0408919,0.0408919,0.0408919,-0.959108,0.883646,-0.222373,1.32294,-0.0163147,-0.00483932,-0.0307317,0.000546191,-0.00924981,0.0158627,-0.0148922,-0.040378,-0.00584556,0.0408919,-0.132073,-0.847061,0.0472709,0.0960686,-0.0935172,0.0423216,-0.786216,0.956893,-0.00867047,0.071633,0.0171635,-0.00583178,-0.162862,0.0500098,0.822779,0.000546191,-0.00924981,0.0158627,-0.0148922,-0.040378,-0.00584556,0,0,0,0,0,0,0,0,0,-0.000872336,-0.000529642,-0.000887541,-0.00015169,-0.000248933,0.00126775,1.01768e-05,0.000108485,0.000238478,0.000733533,-0.000340631,0.000348811
862,0.00051179,-0.00100362,-0.00237499,-0.0038244,0.106086,0.106086,0.106086,0.106086,0.106086,0.106086,0.106086,0.106086,0.106086,-0.856086,0.514045,-0.726692,1.23499,-0.00100362,-0.00237499,-0.0038244,-0.00488572,1.02334e-05,0.000888702,0.00245667,0.00201802,-0.00254622,0.106086,5.07385e-05,0.0115836,-0.00102692,0.00919554,0.000975076,-0.000602368,0.00107419,-0.0115551,0.00180666,-0.0028114,-0.000518647,0.00128438,-0.00400916,0.000472415,0.00146584,-0.00488572,1.02334e-05,0.000888702,0.00245667,0.00201802,-0.00254622,0,0,0,0,0,0,0,0,0,-0.000435732,-2.11225e-05,-0.000268122,-0.00039414,-0.000289494,0.000257955,2.43691e-05,8.31802e-05,0.000329658,0.000397003,-6.81865e-05,-7.31655e-06
863,0.00051179,-0.00392321,-0.000209338,-0.00991953,0.00835797,0.00835797,0.00835797,0.00835797,0.00835797,0.00835797,0.00835797,0.00835797,0.00835797,-0.847327,0.575023,-0.991642,1.42547,-0.00392321,-0.000209338,-0.00991953,-0.000814602,0.00198536,-0.00174052,-0.00435246,7.37049e-06,0.00149772,0.00835797,0.00167574,-0.0111546,-0.000168644,0.00265779,-0.000432778,0.000363573,0.00149951,0.0155106,-0.000548767,0.00165339,0.000259586,0.000100544,-0.00410184,-0.00136546,0.00831947,-0.000814602,0.00198536,-0.00174052,-0.00435246,7.37049e-06,0.00149772,0,0,0,0,0,0,0,0,0,-0.000342175,8.81474e-06,-0.00020222,-0.000452385,-0.000310594,0.000220387,-1.99971e-05,8.81635e-05,0.000328071,0.000438616,-8.5494e-05,5.17031e-06
864,0.00051179,-0.131234,-0.00122944,-0.0707245,0.0399927,0.0399927,0.0399927,0.0399927,0.0399927,0.0399927,0.0399927,0.0399927,0.0399927,-0.789993,-0.666618,-0.188724,1.05075,-0.131234,-0.00122944,-0.0707245,-0.0209357,0.000493333,-0.0484636,-0.0389179,0.0363956,0.000544608,0.0399927,-0.296577,7.0815,-0.0392225,0.293351,0.324491,-0.333397,3.27404,-7.27476,0.0192986,-0.157488,-0.0544764,0.501113,-0.134634,-0.379636,-3.70443,-0.0209357,0.000493333,-0.0484636,-0.0389179,0.0363956,0.000544608,0,0,0,0,0,0,0,0,0,-0.000998288,-0.000761153,0.000266208,-0.00439143,-0.000459308,-0.000653499,0.000728316,1.25402e-05,0.000277102,0.000572824,-0.000193348,-0.00106905
865,0.00051179,0.00162846,0.00422171,-0.000372797,0.123069,0.123069,0.123069,0.123069,0.123069,0.123069,0.123069,0.123069,0.123069,-0.876931,0.640649,-0.407077,1.15981,0.00162846,0.00422171,-0.000372797,-0.00542381,-0.00253543,0.00212028,-0.000633206,0.00253596,-0.00775964,0.123069,-0.0153575,0.269858,0.00369126,-0.0288245,0.00467028,-0.0200244,0.22749,-0.276157,0.0227883,-0.0151147,0.0059577,0.0595004,0.0397174,-0.0236063,-0.286618,-0.00542381,-0.00253543,0.00212028,-0.000633206,0.00253596,-0.00775964,0,0,0,0,0,0,0,0,0,-0.000622392,-6.93002e-05,-0.000507491,-0.000568422,-0.000254029,0.00051905,0.000145382,0.000154882,0.000298359,0.00038938,-6.99452e-05,-0.000122223
866,0.00051179,0.0122907,0.00996214,0.0197893,0.0598469,0.0598469,0.0598469,0.0598469,0.0598469,0.0598469,0.0598469,0.0598469,0.0598469,-0.940153,0.756769,0.072256,1.20905,0.0122907,0.00996214,0.0197893,-0.00442538,0.0120586,0.00887129,0.00958987,-0.00618375,0.0100271,0.0598469,0.393635,2.9918,-0.0627879,-0.227202,-0.221356,0.260539,0.920439,-2.78274,0.0325808,-0.239694,-0.0452387,-0.0926555,0.456934,-0.105877,-0.847573,-0.00442538,0.0120586,0.00887129,0.00958987,-0.00618375,0.0100271,0,0,0,0,0,0,0,0,0,-0.000415482,0.0015589,0.000216681,0.00196953,-0.000311399,-0.000723974,-0.000176298,-0.000285254,0.000394084,0.000724578,-0.000228971,-0.000866399
867,0.00051179,0.00187044,-0.0153249,-0.00743502,0.0908859,0.0908859,0.0908859,0.0908859,0.0908859,0.0908859,0.0908859,0.0908859,0.0908859,-0.909114,-0.165467,-0.334104,0.982595,0.00187044,-0.0153249,-0.00743502,-0.00822115,0.00047009,-0.00217763,0.000270228,0.00435788,-0.00392652,0.0908859,-0.0262033,0.233002,0.0045122,-0.0820322,-0.018874,-0.0307266,0.0563651,-0.215998,-0.0222622,0.000564124,0.00052124,-0.0336582,0.096793,-0.0201323,-0.0152718,-0.00822115,0.00047009,-0.00217763,0.000270228,0.00435788,-0.00392652,0,0,0,0,0,0,0,0,0,-0.000512652,-7.92661e-05,0.000113994,-0.00050377,-0.000316972,-6.41713e-05,-1.71038e-05,3.70748e-05,0.000330418,0.000174728,1.17164e-05,-2.7438e-05
868,0.00051179,0.00887846,-0.000774619,0.000236292,0.0707356,0.0707356,0.0707356,0.0707356,0.0707356,0.0707356,0.0707356,0.0707356,0.0707356,-0.925498,-0.929264,-0.842808,1.55898,0.00887846,-0.000774619,0.000236292,-0.00226987,0.00162272,0.000492308,-0.00118924,0.000733349,-0.000651489,0.0707356,0.00193615,-0.0106268,-0.000828318,0.00212049,-0.00265012,0.00106177,-0.00143744,0.00439847,-0.00091091,-0.0025198,-0.000214084,-0.00393949,0.00117393,-0.000805579,0.00514064,-0.00226987,0.00162272,0.000492308,-0.00118924,0.000733349,-0.000651489,0,0,0,0,0,0,0,0,0,-0.000520743,2.82094e-06,0.00032346,-0.000517754,-0.000282491,-0.000315516,-6.01119e-06,-0.000106375,0.000271007,0.000533295,0.000111568,-2.7958e-06
869,0.00051179,-0.0346065,0.00370479,-0.0301294,0.0606407,0.0606407,0.0606407,0.0606407,0.0606407,0.0606407,0.0606407,0.0606407,0.0606407,-0.689359,0.395977,-0.0275779,0.795471,-0.0346065,0.00370479,-0.0301294,-0.0267307,-0.0168348,0.00998163,-0.011925,-0.0226659,0.00991638,0.0606407,-0.879023,-4.45777,-0.309367,-2.52152,0.222629,0.205883,-7.02956,4.26975,-0.285323,-0.227264,0.364682,0.000894343,2.74508,-0.220804,7.0588,-0.0267307,-0.0168348,0.00998163,-0.011925,-0.0226659,0.00991638,0,0,0,0,0,0,0,0,0,-0.000993483,-0.00289736,-0.00157173,0.0148592,-0.000478322,-0.00169028,0.00014517,0.00515656,-0.0001738,-0.0127006,-0.00173641,0.000576972
870,0.00051179,-0.00120921,0.00170721,-0.000304883,0.0935778,0.0935778,0.0935778,0.0935778,0.0935778,0.0935778,0.0935778,0.0935778,0.0935778,-0.906422,-0.548227,0.750081,1.29799,-0.00120921,0.00170721,-0.000304883,0.000130237,-0.00167901,-0.00101929,0.00568687,0.00292766,0.00311795,0.0935778,0.000480369,-0.00913102,0.000604399,-0.00492196,-0.000530211,-0.000335045,0.0146081,0.0108704,-0.000909077,-0.000849743,-0.000879101,0.00134242,0.00406449,-9.43653e-05,-0.0156456,0.000130237,-0.00167901,-0.00101929,0.00568687,0.00292766,0.00311795,0,0,0,0,0,0,0,0,0,-0.000571936,-6.6531e-06,-0.000298713,-0.000296459,-0.000345344,0.000287967,1.41828e-05,1.47891e-05,0.000321969,0.000282915,5.69654e-06,5.41177e-06
871,0.00051179,-0.00157408,-0.00565661,-0.00187778,0.0227419,0.0227419,0.0227419,0.0227419,0.0227419,0.0227419,0.0227419,0.0227419,0.0227419,-0.977258,-0.778099,0.944513,1.56607,-0.00157408,-0.00565661,-0.00187778,-0.00717591,0.00154065,-0.00292216,0.00183578,0.00638869,0.00255915,0.0227419,0.00116105,0.00149319,-0.000316076,0.000892005,0.00116983,0.000563558,-0.000920133,-0.00108894,0.000483332,0.00202345,-0.00014216,-0.00144587,0.00274116,-0.00238821,0.00424378,-0.00717591,0.00154065,-0.00292216,0.00183578,0.00638869,0.00255915,0,0,0,0,0,0,0,0,0,-0.000571333,-2.60072e-05,-0.000288121,-0.000424627,-0.000367874,0.000300367,1.56627e-05,8.6669e-06,0.000291824,0.000401041,5.37984e-05,4.92176e-06
872,0.00051179,0.0025371,0.000158389,0.00476141,0.00911242,0.00911242,0.00911242,0.00911242,0.00911242,0.00911242,0.00911242,0.00911242,0.00911242,-0.990888,-0.145614,0.79782,1.28046,0.0025371,0.000158389,0.00476141,0.00164252,-0.0018118,0.000236595,0.0151968,-0.000241271,0.0028036,0.00911242,0.00179423,-0.020479,0.000674076,-0.00252705,-0.000322773,-0.00245419,0.0366225,0.0182647,0.00237758,0.00245837,-0.000584406,-0.000320621,-8.97045e-05,0.00199009,-0.0410633,0.00164252,-0.0018118,0.000236595,0.0151968,-0.000241271,0.0028036,0,0,0,0,0,0,0,0,0,-0.00066074,-1.2591e-05,-8.91362e-05,-0.000230265,-0.000345165,7.7759e-05,5.8097e-05,1.63901e-05,0.000299349,0.000208089,-2.46468e-05,-5.80628e-06
873,0.00051179,0.00167611,-0.00202468,0.00350896,0.0488801,0.0488801,0.0488801,0.0488801,0.0488801,0.0488801,0.0488801,0.0488801,0.0488801,-0.79888,-0.262472,0.794902,1.15714,0.00167611,-0.00202468,0.00350896,0.00435651,-0.00017053,0.000252098,-0.00610858,-0.00360507,0.00726394,0.0488801,0.000301555,-0.00387807,7.73743e-05,-0.000792446,9.69258e-05,0.000230871,0.00112089,0.00210503,-0.000940995,-1.42863e-06,-0.000747163,0.000314403,0.00281856,-2.76901e-05,-0.00494425,0.00435651,-0.00017053,0.000252098,-0.00610858,-0.00360507,0.00726394,0,0,0,0,0,0,0,0,0,-0.000648558,1.77002e-05,-0.000152104,-0.000244757,-0.000325734,0.000151173,-4.0838e-05,-5.51538e-06,0.000345416,0.000249587,-3.80069e-05,3.05912e-05
874,0.00051179,0.00418447,-1.62392e-05,-0.00600621,0.123428,0.123428,0.123428,0.123428,0.123428,0.123428,0.123428,0.123428,0.123428,-0.875861,-0.84323,-0.876572,1.49885,0.00418447,-1.62392e-05,-0.00600621,-0.00133984,0.00230336,0.00267126,-0.00316806,0.000806135,0.000644202,0.123428,0.00117375,-0.00617774,-0.000780545,0.0032012,-0.000734524,0.000972103,-0.00313943,0.00272779,-0.00111155,-0.00173461,-0.000212735,0.000659705,-0.00145035,-0.000466798,0.00848593,-0.00133984,0.00230336,0.00267126,-0.00316806,0.000806135,0.000644202,0,0,0,0,0,0,0,0,0,-0.00047674,4.09452e-06,0.000308291,-0.000475283,-0.000294471,-0.000293063,-1.64731e-05,-0.000122934,0.000307739,0.000511716,0.000128868,5.81199e-06
875,0.00051179,0.00219538,0.00625559,0.00575865,0.02419,0.02419,0.02419,0.02419,0.02419,0.02419,0.02419,0.02419,0.02419,-0.97581,-0.778504,-0.844757,1.50728,0.00219538,0.00625559,0.00575865,-0.00222442,-1.10045e-05,0.00258609,-0.00671882,0.00981522,0.000400352,0.02419,0.00113805,-0.00416201,-0.00128793,0.00521604,-0.0015025,0.0016142,-0.00763,0.00346913,-0.00151698,-0.00602621,-0.000360258,0.0028225,-0.00544543,-0.00218466,-0.000951148,-0.00222442,-1.10045e-05,0.00258609,-0.00671882,0.00981522,0.000400352,0,0,0,0,0,0,0,0,0,-0.000471346,7.38332e-06,0.000324102,-0.000456429,-0.000268633,-0.000337091,-2.83639e-05,-7.13488e-05,0.000267155,0.000498432,0.000165898,3.89365e-06
876,0.00051179,0.00247674,0.000677129,0.00141381,0.04591,0.04591,0.04591,0.04591,0.04591,0.04591,0.04591,0.04591,0.04591,-0.79591,-0.489168,0.817853,1.24163,0.00247674,0.000677129,0.00141381,0.0022889,-0.000542555,0.000271253,-0.005403,-0.00470087,0.0054439,0.04591,0.000391558,-0.00341025,6.40228e-05,-0.00284757,-0.000402884,0.000396397,0.000890359,0.0013364,-0.000852095,-0.000866286,-0.000785409,0.000488185,0.00303673,-0.000499751,-0.00279236,0.0022889,-0.000542555,0.000271253,-0.005403,-0.00470087,0.0054439,0,0,0,0,0,0,0,0,0,-0.000607848,1.18221e-05,-0.000255097,-0.000293701,-0.000317091,0.000250312,-3.28557e-05,-2.40976e-05,0.000355065,0.000300378,-3.07652e-05,2.31405e-05
877,0.00051179,0.118582,0.0229296,-0.143986,0.0232047,0.0232047,0.0232047,0.0232047,0.0232047,0.0232047,0.0232047,0.0232047,0.0232047,-0.654323,-0.0228568,0.0767953,0.65921,0.118582,0.0229296,-0.143986,0.00448568,0.0106174,0.0611751,-0.0800963,-0.00949221,0.0630488,0.0232047,0.293984,-3.26607,-0.0704017,-0.172963,3.28519,-0.047663,0.0366919,-0.137705,0.66594,-0.0876976,-0.000265508,0.244113,0.237731,0.033607,-0.136819,0.00448568,0.0106174,0.0611751,-0.0800963,-0.00949221,0.0630488,0,0,0,0,0,0,0,0,0,-0.000382282,0.000360461,-0.000352286,0.00245718,-0.000382358,-0.000245557,0.00179733,-0.000399627,0.000280611,-0.00232206,0.000302049,-0.000648609
878,0.00051179,0.00926913,0.00286945,-0.0167781,0.0312512,0.0312512,0.0312512,0.0312512,0.0312512,0.0312512,0.0312512,0.0312512,0.0312512,-0.968749,0.797791,0.504308,1.35251,0.00926913,0.00286945,-0.0167781,-0.000321231,-0.00590132,-0.00588098,0.00667488,-0.0193727,0.00610368,0.0312512,0.00666167,-0.063133,-0.00560438,0.0202426,0.00657496,-0.00689777,0.0248671,0.0472889,-0.000792669,0.0241502,0.00266577,0.00623147,-0.0472622,0.0042946,-0.0143205,-0.000321231,-0.00590132,-0.00588098,0.00667488,-0.0193727,0.00610368,0,0,0,0,0,0,0,0,0,-0.000400543,5.60112e-06,0.000496896,-0.000510408,-0.000305975,-0.000611953,3.30998e-06,-1.26617e-05,0.000251584,0.000382621,-0.000154407,2.58903e-05
879,0.00051179,0.0310433,-0.00101562,-0.025223,0.0477666,0.0477666,0.0477666,0.0477666,0.0477666,0.0477666,0.0477666,0.0477666,0.0477666,-0.952233,0.825162,0.184949,1.27352,0.0310433,-0.00101562,-0.025223,-0.002148,0.00147185,0.020737,0.0118639,-0.0364828,-0.000350058,0.0477666,0.262769,1.5033,-0.0780323,-0.145026,-0.0233918,0.0416793,-1.05554,-1.51095,-0.000386493,-0.0814612,0.00878723,0.0940856,0.227503,-0.0642211,0.986681,-0.002148,0.00147185,0.020737,0.0118639,-0.0364828,-0.000350058,0,0,0,0,0,0,0,0,0,-0.000274293,0.00106365,0.000605595,0.000344,-0.000333006,-0.0013712,-0.000182068,-6.74763e-05,0.000283286,0.000280163,-0.000209479,-0.000562311
880,0.00051179,-0.0178394,-0.00974815,-0.0230503,0.00755039,0.00755039,0.00755039,0.00755039,0.00755039,0.00755039,0.00755039,0.00755039,0.00755039,-0.99245,0.886248,-0.68483,1.49646,-0.0178394,-0.00974815,-0.0230503,0.00249173,0.000120107,0.00252657,-0.00241464,-0.0166693,-0.00286186,0.00755039,-0.000306353,0.0309703,-0.00216462,0.0134195,0.00728636,0.000799559,0.00544374,-0.0204173,-0.000542449,-0.00893382,0.000498789,0.00016127,0.0052625,-0.000648048,0.0174453,0.00249173,0.000120107,0.00252657,-0.00241464,-0.0166693,-0.00286186,0,0,0,0,0,0,0,0,0,-0.000586383,1.58672e-05,-0.000410311,-0.00058906,-0.000330502,0.000389866,-9.84511e-06,6.03015e-05,0.000206925,0.000622321,-0.000222006,-1.26092e-05
881,0.00051179,-0.00486629,-0.00348616,0.00107081,0.0805296,0.0805296,0.0805296,0.0805296,0.0805296,0.0805296,0.0805296,0.0805296,0.0805296,-0.83053,0.615234,0.630163,1.21054,-0.00486629,-0.00348616,0.00107081,-0.00101661,-0.00237324,9.75356e-05,-0.00452024,0.00748732,0.0088056,0.0805296,0.000388399,-0.00924473,0.000339635,0.00513875,0.00041144,-0.000275351,0.0177778,0.0136996,-0.00239091,0.00575221,-0.000789187,0.00221771,-0.0074048,0.000497617,-0.0210663,-0.00101661,-0.00237324,9.75356e-05,-0.00452024,0.00748732,0.0088056,0,0,0,0,0,0,0,0,0,-0.000527687,-5.17627e-06,0.000334835,-0.000339123,-0.000359679,-0.000355171,-3.6591e-05,7.09393e-05,0.000318088,0.000337345,-3.95802e-06,4.44808e-05
882,0.00051179,0.0515223,-0.0945356,0.0365305,0.0218029,0.0218029,0.0218029,0.0218029,0.0218029,0.0218029,0.0218029,0.0218029,0.0218029,-0.771803,-0.413282,-0.103149,0.881545,0.0515223,-0.0945356,0.0365305,0.0517887,-0.0339123,0.125268,-0.022016,-0.00777142,0.0128042,0.0218029,-1.52365,-15.1985,0.356134,3.10453,0.358882,-0.337004,-8.6151,14.7881,-0.377117,0.187548,0.0847093,-0.0114923,-3.19755,-0.179149,8.59006,0.0517887,-0.0339123,0.125268,-0.022016,-0.00777142,0.0128042,0,0,0,0,0,0,0,0,0,-0.00116426,-0.00500853,0.00182963,0.000102048,-0.000229085,0.00139259,0.000355111,0.000427723,0.000272192,-0.0022194,0.000341656,0.00151905
883,0.00051179,-0.00135261,0.0028176,-0.00274875,0.0740962,0.0740962,0.0740962,0.0740962,0.0740962,0.0740962,0.0740962,0.0740962,0.0740962,-0.925904,-0.339088,-0.69098,1.20405,-0.00135261,0.0028176,-0.00274875,-0.00295063,0.00429361,0.00016496,-0.00655088,-4.2323e-05,0.00032921,0.0740962,-0.00149386,0.0287666,-0.00235175,0.0139236,-0.00126436,-0.00208646,0.0122112,-0.0261496,0.00224833,0.0014451,-0.00243894,-0.00384871,-0.0181863,-0.00136917,-0.00561373,-0.00295063,0.00429361,0.00016496,-0.00655088,-4.2323e-05,0.00032921,0,0,0,0,0,0,0,0,0,-0.000404485,-1.09297e-05,0.000200961,-0.00032569,-0.000304276,-0.000181543,-1.02201e-05,-5.45152e-05,0.000331588,0.000306475,2.97026e-05,6.09288e-06
884,0.00051179,-0.00159784,-0.00210595,-0.000305432,0.0696516,0.0696516,0.0696516,0.0696516,0.0696516,0.0696516,0.0696516,0.0696516,0.0696516,-0.819652,0.585219,0.791705,1.28106,-0.00159784,-0.00210595,-0.000305432,0.004022,-0.00130846,-7.92667e-05,-0.0015933,0.00539273,0.00649726,0.0696516,0.000249162,0.000679776,0.000312515,-0.00259832,0.000461472,0.000404142,0.00127634,0.000456591,-0.000854092,0.00129183,-0.00096657,0.000419803,0.00341244,-0.000623625,-0.00139071,0.004022,-0.00130846,-7.92667e-05,-0.0015933,0.00539273,0.00649726,0,0,0,0,0,0,0,0,0,-0.0005906,1.24742e-05,0.000255521,-0.000341655,-0.000351751,-0.000265481,-2.11186e-05,5.41869e-05,0.000327103,0.000344904,-9.92536e-06,2.04865e-05
885,0.00051179,0.000501318,-0.00229804,0.00381843,0.114727,0.114727,0.114727,0.114727,0.114727,0.114727,0.114727,0.114727,0.114727,-0.885273,-0.215901,0.880327,1.267,0.000501318,-0.00229804,0.00381843,-0.00242773,-0.0015782,-0.00118317,0.00331913,-0.000776981,0.00516164,0.114727,0.00110103,-0.00404831,-9.76771e-06,-0.0025347,9.65843e-05,0.000233926,0.00388291,0.00345041,-0.00018874,0.000744184,-0.000301568,0.000122196,0.00408856,-0.000644181,-0.00782353,-0.00242773,-0.0015782,-0.00118317,0.00331913,-0.000776981,0.00516164,0,0,0,0,0,0,0,0,0,-0.000675894,-1.39271e-05,-0.00011895,-0.000247309,-0.000336671,0.00010307,8.35831e-06,1.32036e-05,0.000324979,0.000237817,-2.39891e-05,1.52936e-05
886,0.00051179,-0.00200593,0.0021892,0.00699139,0.0580702,0.0580702,0.0580702,0.0580702,0.0580702,0.0580702,0.0580702,0.0580702,0.0580702,-0.80807,0.501531,0.430281,1.04386,-0.00200593,0.0021892,0.00699139,0.00379825,-0.00439242,0.00619888,-0.0037399,-0.00356968,0.0136838,0.0580702,0.00139423,-0.0573035,-0.000888281,0.00495009,-0.00589944,-0.00656514,0.130163,0.0652089,-0.0182617,-0.0187622,0.000664823,0.0231209,0.0116229,0.0137559,-0.160275,0.00379825,-0.00439242,0.00619888,-0.0037399,-0.00356968,0.0136838,0,0,0,0,0,0,0,0,0,-0.000497706,1.36963e-05,0.000363717,-0.000398438,-0.000367427,-0.000416524,-0.000122274,-2.21672e-05,0.000309892,0.000394776,-6.88134e-06,0.000124932
887,0.00051179,-0.00307907,-0.00751974,-0.0183336,0.00710814,0.00710814,0.00710814,0.00710814,0.00710814,0.00710814,0.00710814,0.00710814,0.00710814,-0.992892,0.803168,-0.694049,1.45348,-0.00307907,-0.00751974,-0.0183336,-0.000467994,-0.00135745,0.00160337,-0.00572107,-0.018052,0.00160874,0.00710814,-0.000713035,0.0255561,-0.002584,0.0169823,0.00477335,0.000156246,0.0109594,-0.0272503,0.000103561,-0.0110787,0.000496359,-8.56781e-05,0.00161608,-0.00143449,0.00745986,-0.000467994,-0.00135745,0.00160337,-0.00572107,-0.018052,0.00160874,0,0,0,0,0,0,0,0,0,-0.000547387,1.73827e-06,-0.000398644,-0.000534941,-0.000329936,0.00035923,-2.04441e-05,5.34153e-05,0.000225544,0.000552537,-0.000228972,8.51463e-06
888,0.00051179,0.00359436,-0.00256334,0.00370232,0.026415,0.026415,0.026415,0.026415,0.026415,0.026415,0.026415,0.026415,0.026415,-0.862949,0.0756171,0.973585,1.30318,0.00359436,-0.00256334,0.00370232,0.000773879,-0.00165836,-0.0010589,0.000446161,0.000196072,0.00601971,0.026415,0.000995651,-0.00227001,-0.000328057,-0.00103967,8.26525e-05,0.000376627,0.00197505,-0.001407,-0.000755148,-0.00021291,1.52187e-05,-0.000249783,0.00381592,-0.00120093,-0.00542759,0.000773879,-0.00165836,-0.0010589,0.000446161,0.000196072,0.00601971,0,0,0,0,0,0,0,0,0,-0.00071431,1.60227e-06,8.83478e-06,-0.000270015,-0.00033381,-2.8699e-05,-8.79031e-06,2.22144e-05,0.000324644,0.000263192,-2.01015e-05,1.68485e-05
889,0.00051179,0.00938962,0.00251266,0.00598977,0.0440199,0.0440199,0.0440199,0.0440199,0.0440199,0.0440199,0.0440199,0.0440199,0.0440199,-0.79402,0.0295388,-0.546277,0.96424,0.00938962,0.00251266,0.00598977,-0.0100566,0.0019044,0.00462829,0.000665762,-0.00138145,0.00314269,0.0440199,0.000467017,-0.0055196,-0.000767462,0.0134019,0.000345956,-0.000880573,0.0259469,-0.00421598,0.0222346,0.001667,-0.00506209,0.00185082,-0.0175816,-0.00287387,-0.0337875,-0.0100566,0.0019044,0.00462829,0.000665762,-0.00138145,0.00314269,0,0,0,0,0,0,0,0,0,-0.00042183,-6.36169e-05,-2.17712e-05,-0.000322033,-0.000307644,3.31406e-05,9.88332e-05,-4.22446e-05,0.000370391,0.00035951,-2.21908e-05,-1.43247e-05
890,0.00051179,0.00618106,-0.00860289,-0.0033121,0.0925012,0.0925012,0.0925012,0.0925012,0.0925012,0.0925012,0.0925012,0.0925012,0.0925012,-0.907499,0.730545,-0.463712,1.25391,0.00618106,-0.00860289,-0.0033121,-0.00387143,-0.0021436,0.00218156,-0.00172901,-0.00293005,-0.00318397,0.0925012,-0.00761597,0.109996,0.00125093,-0.0134245,-0.00598153,-0.0104298,0.0815311,-0.110196,0.0113015,-0.0365811,0.00570056,0.0242743,0.0586084,-0.00970934,-0.102493,-0.00387143,-0.0021436,0.00218156,-0.00172901,-0.00293005,-0.00318397,0,0,0,0,0,0,0,0,0,-0.000637606,-4.03505e-05,-0.000543157,-0.000537911,-0.00027048,0.00053423,6.49487e-05,0.000165547,0.000281222,0.000455429,-0.000137842,-4.73801e-05
891,0.00051179,-0.171374,0.0295222,-0.0385652,0.0227052,0.0227052,0.0227052,0.0227052,0.0227052,0.0227052,0.0227052,0.0227052,0.0227052,-0.727295,0.341071,-0.0197482,0.803541,-0.171374,0.0295222,-0.0385652,-0.0442572,-0.0333406,0.0288246,0.000704717,-0.0176293,-0.002281,0.0227052,-0.398043,-2.15355,-0.160367,-1.51319,-0.0498868,0.37976,-3.90063,2.37481,-0.163446,-0.1642,0.30389,0.21262,1.64787,-0.105738,3.72657,-0.0442572,-0.0333406,0.0288246,0.000704717,-0.0176293,-0.002281,0,0,0,0,0,0,0,0,0,-0.000755467,-0.00138874,-0.000868911,0.00929384,-0.000394041,-0.00106816,9.05713e-06,0.00360525,0.000225306,-0.00520799,-0.000742648,0.000282668
892,0.00051179,-0.00473425,0.00214598,-0.00856712,0.0940129,0.0940129,0.0940129,0.0940129,0.0940129,0.0940129,0.0940129,0.0940129,0.0940129,-0.844013,-0.0869797,-0.607479,1.04353,-0.00473425,0.00214598,-0.00856712,-0.00492758,5.45471e-05,0.000765014,0.000853238,-0.00124042,-0.00152315,0.0940129,0.000428334,0.0140062,-0.00165641,0.0134243,-0.00019622,-0.00205921,0.0320593,-0.00907574,0.0110176,0.00424603,-0.0039128,0.000389615,-0.0198163,-0.00110411,-0.0238818,-0.00492758,5.45471e-05,0.000765014,0.000853238,-0.00124042,-0.00152315,0,0,0,0,0,0,0,0,0,-0.000401966,-2.79704e-05,4.84022e-05,-0.000318084,-0.000312859,-6.44208e-05,5.38799e-05,-4.0233e-05,0.000356816,0.000305142,-1.12992e-05,-1.86105e-05
893,0.00051179,0.00937414,-0.00334436,-0.00919925,0.0163294,0.0163294,0.0163294,0.0163294,0.0163294,0.0163294,0.0163294,0.0163294,0.0163294,-0.983671,0.580274,0.370811,1.20076,0.00937414,-0.00334436,-0.00919925,0.0112544,-0.0088558,-0.00745432,0.0129621,-0.00493426,-0.0130046,0.0163294,0.0602785,-0.290407,-0.00126969,0.0292168,-0.0765006,-0.0446548,-0.0325731,0.357533,0.0123192,-0.0950185,-0.00895088,0.0795591,0.069146,0.018761,-0.0377868,0.0112544,-0.0088558,-0.00745432,0.0129621,-0.00493426,-0.0130046,0,0,0,0,0,0,0,0,0,-0.000452906,0.000239314,0.00042874,-0.000314164,-0.000294352,-0.000529995,8.0559e-06,-6.29716e-05,0.00028111,-0.000206928,-7.58799e-05,-8.9569e-05
894,0.00051179,0.0349473,0.0268124,0.0617432,0.00964019,0.00964019,0.00964019,0.00964019,0.00964019,0.00964019,0.00964019,0.00964019,0.00964019,-0.75964,-0.707892,-0.363122,1.10001,0.0349473,0.0268124,0.0617432,-0.0474855,0.0224366,-0.0158764,0.0371978,-0.0273806,0.0265902,0.00964019,0.000109568,-0.0342164,-0.000597052,0.0350016,0.00539928,-0.000545654,0.102633,-0.0061301,0.006972,0.0470317,-0.0140239,0.00875102,-0.108846,-0.00621422,-0.173128,-0.0474855,0.0224366,-0.0158764,0.0371978,-0.0273806,0.0265902,0,0,0,0,0,0,0,0,0,-0.000688836,-0.000256691,0.000525702,-0.000748685,-0.000440592,-0.000307306,0.000201038,-0.000363075,0.00038632,0.000584465,-5.09697e-05,8.20684e-05
895,0.00051179,-0.00171056,-0.0307036,-0.0219008,0.0296352,0.0296352,0.0296352,0.0296352,0.0296352,0.0296352,0.0296352,0.0296352,0.0296352,-0.779635,-0.901115,-0.595117,1.33192,-0.00171056,-0.0307036,-0.0219008,-0.00320533,-0.00268869,0.00548072,-0.000303538,-0.00860997,0.00792067,0.0296352,0.00161119,0.00399267,-0.000421099,0.0234501,-0.00285252,0.000359513,0.00462103,0.00057042,0.00160689,0.0244483,-0.00246337,-0.0112233,-0.0171947,0.00484208,0.0285031,-0.00320533,-0.00268869,0.00548072,-0.000303538,-0.00860997,0.00792067,0,0,0,0,0,0,0,0,0,-0.000645481,-2.23615e-05,0.000438831,-0.000575894,-0.000374699,-0.000469928,-7.87395e-06,-0.000245252,0.000358738,0.000634296,0.000134519,4.94231e-05
896,0.00051179,-0.0013234,0.0458,-0.0388843,0.0771609,0.0771609,0.0771609,0.0771609,0.0771609,0.0771609,0.0771609,0.0771609,0.0771609,-0.922839,-0.677416,0.207364,1.16341,-0.0013234,0.0458,-0.0388843,0.00996959,0.00555454,0.0128236,-0.00171849,0.0109829,-0.00194491,0.0771609,0.35543,0.890719,0.0366256,-0.17561,-0.298957,-0.120738,-1.38465,-0.590439,0.0337828,0.215367,-0.0024007,0.201056,-0.0855563,0.000853512,1.22248,0.00996959,0.00555454,0.0128236,-0.00171849,0.0109829,-0.00194491,0,0,0,0,0,0,0,0,0,-0.000310183,0.00136964,-0.000425957,-0.000506803,-0.000350351,0.000847759,-0.000297031,7.16061e-05,0.00031586,-0.000572344,1.42156e-05,-0.00046281
897,0.00051179,-0.00397435,0.000184007,-0.00943138,0.0912356,0.0912356,0.0912356,0.0912356,0.0912356,0.0912356,0.0912356,0.0912356,0.0912356,-0.908764,-0.530572,0.402201,1.12655,-0.00397435,0.000184007,-0.00943138,0.00016566,0.00140448,0.00159081,0.000854018,0.00280561,0.00134084,0.0912356,0.0228771,-0.301031,0.000571735,0.000905867,-0.0295597,-0.0289005,0.1835,0.334565,-0.00196679,0.0719971,0.00581726,0.057776,-0.073087,0.0279127,-0.231845,0.00016566,0.00140448,0.00159081,0.000854018,0.00280561,0.00134084,0,0,0,0,0,0,0,0,0,-0.000476688,5.61557e-05,-0.000405182,-0.000330981,-0.000355119,0.000424945,-6.46218e-05,8.28671e-05,0.000309885,5.78842e-05,3.3617e-06,8.721e-05
898,0.00051179,0.00777853,-0.00347682,-0.0171745,0.0168955,0.0168955,0.0168955,0.0168955,0.0168955,0.0168955,0.0168955,0.0168955,0.0168955,-0.983105,0.617862,-0.0192704,1.1613,0.00777853,-0.00347682,-0.0171745,0.0127533,-0.00183629,-0.0345222,-0.00475014,0.0214262,-0.00610396,0.0168955,-0.0689686,-0.899565,0.00103325,0.0179447,0.0949848,0.206665,1.24436,0.796802,0.0145066,0.0490462,-0.0249579,-0.291869,-0.0635141,0.0310543,-0.935313,0.0127533,-0.00183629,-0.0345222,-0.00475014,0.0214262,-0.00610396,0,0,0,0,0,0,0,0,0,-0.000613652,-0.000256259,-4.78341e-05,0.0010212,-0.000292504,3.98037e-05,7.35999e-05,0.000176928,0.000432782,0.000700225,-0.000212245,0.000149569
899,0.00051179,0.0203478,-0.0107604,-0.0127227,0.00639199,0.00639199,0.00639199,0.00639199,0.00639199,0.00639199,0.00639199,0.00639199,0.00639199,-0.993608,0.560625,0.0918382,1.14455,0.0203478,-0.0107604,-0.0127227,-0.0132452,0.0157492,0.0315787,0.0527606,0.0217447,0.0403766,0.00639199,0.363282,2.03759,-0.0137669,0.112869,-0.272637,0.0818805,0.433346,-1.7853,0.0668588,-0.132048,-0.00975225,-0.14703,0.029939,-0.0487593,-0.273593,-0.0132452,0.0157492,0.0315787,0.0527606,0.0217447,0.0403766,0,0,0,0,0,0,0,0,0,-0.000509329,0.00121795,0.000188675,0.000943392,-0.000275636,-0.000168852,6.58583e-05,0.000200271,0.000401117,0.0001912,-8.03465e-05,-0.000574152
900,0.00051179,0.00211516,0.00256879,-0.00157683,0.060777,0.060777,0.060777,0.060777,0.060777,0.060777,0.060777,0.060777,0.060777,-0.939223,0.770987,0.550438,1.334,0.00211516,0.00256879,-0.00157683,3.79281e-06,-0.00216827,-0.00181644,0.00507253,-0.00841606,0.00539031,0.060777,0.0047114,-0.041799,-0.00328254,0.0242327,0.00355254,-0.00541639,0.0246508,0.0361313,-0.000949906,-0.00164419,0.000726387,0.00327733,-0.0251573,0.00517914,-0.0263513,3.79281e-06,-0.00216827,-0.00181644,0.00507253,-0.00841606,0.00539031,0,0,0,0,0,0,0,0,0,-0.000435613,1.18298e-06,0.000436715,-0.000470769,-0.000321919,-0.000491223,-1.77989e-06,2.05302e-05,0.000267826,0.000398441,-9.74269e-05,3.04542e-05
901,0.00051179,-0.029039,0.0185728,0.0135971,0.029794,0.029794,0.029794,0.029794,0.029794,0.029794,0.029794,0.029794,0.029794,-0.970206,-0.457654,-0.0855767,1.07614,-0.029039,0.0185728,0.0135971,0.0201028,-0.0103863,-0.00986306,-0.0152064,-0.00882249,-0.00759074,0.029794,-0.29784,-2.20293,0.0352734,0.420574,0.290419,0.062137,0.36026,1.94155,-0.0439214,-0.0783045,-0.0384164,-0.166405,-0.360842,0.0607958,-0.207452,0.0201028,-0.0103863,-0.00986306,-0.0152064,-0.00882249,-0.00759074,0,0,0,0,0,0,0,0,0,-0.00064268,-0.00106139,0.000265329,0.000387076,-0.000336433,-1.64576e-05,3.16607e-05,-0.000344087,0.000438459,0.000135663,-0.000128302,0.000593325
902,0.00051179,0.0359572,-0.0032385,0.0314318,0.0188941,0.0188941,0.0188941,0.0188941,0.0188941,0.0188941,0.0188941,0.0188941,0.0188941,-0.768894,0.469621,0.249527,0.934883,0.0359572,-0.0032385,0.0314318,0.00483885,-0.00189095,-0.00664431,-0.00168645,-0.0349317,0.0144498,0.0188941,0.00475116,-0.498677,-0.000190727,-0.105894,-0.0140675,-0.0178169,1.49344,0.476787,-0.040108,-0.145407,-0.0148111,0.139785,0.254539,0.100578,-1.66466,0.00483885,-0.00189095,-0.00664431,-0.00168645,-0.0349317,0.0144498,0,0,0,0,0,0,0,0,0,-0.000365071,-4.76149e-05,0.000528969,-0.00174392,-0.000353867,-0.000549785,-0.000304537,-0.000435432,0.000298932,0.0014993,-6.19964e-05,0.000479572
903,0.00051179,0.00636556,-0.0170704,-0.00167828,0.0367471,0.0367471,0.0367471,0.0367471,0.0367471,0.0367471,0.0367471,0.0367471,0.0367471,-0.786747,-0.746867,-0.62499,1.25196,0.00636556,-0.0170704,-0.00167828,-0.00643164,0.00111023,0.00306381,0.000888521,-0.0129461,0.00478554,0.0367471,0.00148131,-0.00833887,-0.00067877,0.0116666,-0.000590996,0.000175405,0.0126151,0.0025643,0.00530593,0.0253144,-0.00266701,-0.00163838,-0.0199105,0.000701856,-0.00929842,-0.00643164,0.00111023,0.00306381,0.000888521,-0.0129461,0.00478554,0,0,0,0,0,0,0,0,0,-0.000562496,-3.25188e-05,0.00041995,-0.000462216,-0.000363225,-0.000415635,2.32051e-05,-0.000205041,0.000366397,0.000494608,4.89097e-05,1.96698e-05
904,0.00051179,0.0217121,-0.0169047,0.0162148,0.0298056,0.0298056,0.0298056,0.0298056,0.0298056,0.0298056,0.0298056,0.0298056,0.0298056,-0.970194,-0.238312,0.20342,1.01953,0.0217121,-0.0169047,0.0162148,0.0123359,0.00348181,0.0056274,-0.0110801,-0.0149517,0.00850427,0.0298056,0.149563,0.349172,-0.0208186,-0.175256,0.0883792,-0.0363433,-0.363702,-0.459263,0.0931042,0.0158743,0.0121321,-0.0639789,0.176287,-0.0258198,0.411466,0.0123359,0.00348181,0.0056274,-0.0110801,-0.0149517,0.00850427,0,0,0,0,0,0,0,0,0,-0.000511847,0.000548025,-0.000120591,-0.000139441,-0.000398839,-5.27769e-05,0.00014865,9.65138e-05,0.000331573,-0.000167717,-0.00012471,-0.000348048
905,0.00051179,0.00897708,-0.00475037,0.00494414,0.0106676,0.0106676,0.0106676,0.0106676,0.0106676,0.0106676,0.0106676,0.0106676,0.0106676,-0.760668,-0.519759,0.973571,1.34037,0.00897708,-0.00475037,0.00494414,0.00906219,-0.00277209,-0.00161367,-3.09451e-05,-0.00585422,0.0102868,0.0106676,0.00074096,-0.00507565,-0.000436895,-0.000158499,6.03658e-05,0.000411332,0.00018596,-0.0039618,-0.0014903,0.000131108,-5.60945e-05,0.000423844,0.00477776,-0.00117909,-0.00555395,0.00906219,-0.00277209,-0.00161367,-3.09451e-05,-0.00585422,0.0102868,0,0,0,0,0,0,0,0,0,-0.000648923,2.89508e-05,-0.000210493,-0.000323233,-0.000311697,0.000178404,-2.76712e-05,-2.65261e-05,0.000370741,0.00031121,-3.2577e-05,2.54737e-05
906,0.00051179,0.0093461,-0.000926314,0.00739592,0.0914003,0.0914003,0.0914003,0.0914003,0.0914003,0.0914003,0.0914003,0.0914003,0.0914003,-0.9086,0.106239,-0.0118322,0.914866,0.0093461,-0.000926314,0.00739592,0.00518037,-0.00125288,-0.00171355,0.000944949,0.00752203,0.00207524,0.0914003,-0.0267344,-0.147249,-0.00655323,-0.00588817,-0.116022,0.104489,0.482564,0.253925,0.0108844,-0.0154341,0.0229366,0.321996,0.0222486,-0.00706824,-0.811956,0.00518037,-0.00125288,-0.00171355,0.000944949,0.00752203,0.00207524,0,0,0,0,0,0,0,0,0,-0.000556044,-9.07883e-05,-6.37719e-05,0.000654971,-0.000332201,-1.42891e-05,7.61289e-05,0.000210932,0.000388481,0.00037278,9.36541e-05,-7.98312e-06
907,0.00051179,-0.017346,-0.00496075,-0.00887874,0.106407,0.106407,0.106407,0.106407,0.106407,0.106407,0.106407,0.106407,0.106407,-0.893593,-0.656924,-0.383335,1.17346,-0.017346,-0.00496075,-0.00887874,-0.00488721,0.000505012,0.00335979,-0.000791216,-0.0036659,-0.00414224,0.106407,-0.0289689,0.465504,-0.00539535,0.0431419,0.0408487,-0.0347053,0.34179,-0.489006,0.0106577,-0.0170537,-0.00973391,0.0548617,-0.0211275,-0.0306867,-0.387773,-0.00488721,0.000505012,0.00335979,-0.000791216,-0.0036659,-0.00414224,0,0,0,0,0,0,0,0,0,-0.000634097,-0.000101413,0.000500696,-0.000598295,-0.000358665,-0.0005496,0.0001172,-0.00018824,0.000315443,0.00028484,5.42417e-05,-0.000106277
908,0.00051179,-0.00203971,-0.00057422,-0.00898374,0.0280933,0.0280933,0.0280933,0.0280933,0.0280933,0.0280933,0.0280933,0.0280933,0.0280933,-0.839476,0.635998,-0.971907,1.43311,-0.00203971,-0.00057422,-0.00898374,-0.00162911,0.00114006,-0.00141009,-0.00313947,0.000551879,0.00145945,0.0280933,0.0014136,-0.00787098,-0.000280194,0.00314802,-0.000402298,0.000578858,-0.000409076,0.010313,-0.000380041,0.00136844,0.000206177,3.15993e-05,-0.00394223,-0.00110637,0.00936122,-0.00162911,0.00114006,-0.00141009,-0.00313947,0.000551879,0.00145945,0,0,0,0,0,0,0,0,0,-0.000364222,2.82468e-06,-0.000224993,-0.000463488,-0.000307942,0.000233591,-1.36953e-05,0.000101491,0.000326172,0.000455176,-9.39105e-05,5.66761e-06
909,0.00051179,0.000517786,0.00364347,-0.000591223,0.0893198,0.0893198,0.0893198,0.0893198,0.0893198,0.0893198,0.0893198,0.0893198,0.0893198,-0.83932,-0.400425,0.678041,1.15089,0.000517786,0.00364347,-0.000591223,0.000251024,0.000368532,0.000625907,-0.00287028,-0.00234551,0.00528435,0.0893198,0.000449672,-0.00559519,0.000257082,0.000122194,-0.000855355,-0.000147227,0.0106407,0.00593276,-0.00168662,-0.00345347,-0.000877106,0.000206991,-0.000312197,0.000472058,-0.0102564,0.000251024,0.000368532,0.000625907,-0.00287028,-0.00234551,0.00528435,0,0,0,0,0,0,0,0,0,-0.000593252,1.31095e-06,-0.000245193,-0.000245397,-0.000328058,0.00025145,-2.4977e-05,-4.00514e-06,0.000336915,0.000250184,-2.8221e-05,2.65895e-05
910,0.00051179,-0.0170262,0.00938344,-0.0135304,0.0184972,0.0184972,0.0184972,0.0184972,0.0184972,0.0184972,0.0184972,0.0184972,0.0184972,-0.981503,-0.43526,-0.367649,1.13489,-0.0170262,0.00938344,-0.0135304,-0.00420457,-0.00897624,0.00504935,-0.00995425,-0.0133941,0.0166883,0.0184972,-0.0888948,0.473616,0.00989754,-0.0673703,0.0480678,-0.0673752,0.0738513,-0.504658,-0.0225398,-0.0673035,0.0126917,0.0191764,0.12529,-0.0278701,-0.0794974,-0.00420457,-0.00897624,0.00504935,-0.00995425,-0.0133941,0.0166883,0,0,0,0,0,0,0,0,0,-0.000533022,-0.000307679,0.000280478,-0.000382184,-0.000307018,-0.000271265,-4.65255e-06,-2.06548e-05,0.000329539,-0.000241074,1.36303e-05,0.000101909
911,0.00051179,0.00197134,-0.00325872,-0.00591222,0.10627,0.10627,0.10627,0.10627,0.10627,0.10627,0.10627,0.10627,0.10627,-0.85627,-0.584804,-0.807872,1.31448,0.00197134,-0.00325872,-0.00591222,-0.00638292,0.0028483,0.00281799,-0.00168577,-0.00249275,-0.000737286,0.10627,7.28667e-06,0.0101104,-0.000847332,0.00460903,-0.000306485,0.000174526,0.000226215,-0.0117753,-0.00065987,0.00129691,-0.000232841,-0.000882514,-0.00264722,-2.8383e-05,0.00656851,-0.00638292,0.0028483,0.00281799,-0.00168577,-0.00249275,-0.000737286,0,0,0,0,0,0,0,0,0,-0.000427403,-2.09317e-05,0.000291024,-0.000392133,-0.00031122,-0.000271014,-7.81723e-07,-9.46677e-05,0.000344165,0.000422059,6.74119e-05,7.11812e-06
912,0.00051179,-0.00299821,-0.000775893,0.0027833,0.0971074,0.0971074,0.0971074,0.0971074,0.0971074,0.0971074,0.0971074,0.0971074,0.0971074,-0.847107,0.300439,0.729517,1.15761,-0.00299821,-0.000775893,0.0027833,0.000852739,-0.00104466,0.000384213,-0.0001396,0.002087,0.00692532,0.0971074,-9.79155e-05,-0.000848237,0.000405259,-0.00165557,0.000529716,0.000116102,0.00714994,0.00331673,-0.00143729,0.000360939,-0.00118206,-0.000514202,0.00207052,0.00037257,-0.00941904,0.000852739,-0.00104466,0.000384213,-0.0001396,0.002087,0.00692532,0,0,0,0,0,0,0,0,0,-0.000633582,-3.69799e-06,0.000151525,-0.000249569,-0.000341916,-0.000157919,-1.53566e-05,2.12747e-05,0.000320219,0.000254572,-1.22254e-05,2.90174e-05
913,0.00051179,0.00181281,-0.0060442,-0.00495473,0.0514013,0.0514013,0.0514013,0.0514013,0.0514013,0.0514013,0.0514013,0.0514013,0.0514013,-0.801401,0.11651,0.562735,0.986149,0.00181281,-0.0060442,-0.00495473,0.000826076,-0.0019431,0.00202878,-0.00142469,0.00054707,0.00299512,0.0514013,0.000631824,-0.0168738,0.000333138,0.00929226,-0.00037359,-0.000672117,0.0206003,0.0154346,-0.0083959,-0.000873923,-0.000782064,-0.000404421,-0.00237414,0.00190457,-0.0152411,0.000826076,-0.0019431,0.00202878,-0.00142469,0.00054707,0.00299512,0,0,0,0,0,0,0,0,0,-0.000617214,1.12853e-05,7.92568e-05,-0.00022128,-0.000345254,-9.53564e-05,-4.51072e-05,9.87507e-06,0.00032641,0.000234847,-1.2225e-05,2.84942e-05
914,0.00051179,0.0106839,-0.0169117,0.00902471,0.0336796,0.0336796,0.0336796,0.0336796,0.0336796,0.0336796,0.0336796,0.0336796,0.0336796,-0.78368,-0.603238,-0.55003,1.13163,0.0106839,-0.0169117,0.00902471,-0.00815773,0.00263002,0.00355431,0.00786212,-0.0104451,0.00235577,0.0336796,0.000579491,-0.011609,-0.000944905,0.00898457,0.00150453,-3.32966e-05,0.0244843,-0.000579497,0.012512,0.0359588,-0.00471662,-0.000985432,-0.0280317,-0.00358285,-0.0325236,-0.00815773,0.00263002,0.00355431,0.00786212,-0.0104451,0.00235577,0,0,0,0,0,0,0,0,0,-0.000535749,-5.12398e-05,0.000394556,-0.000420342,-0.000371331,-0.000377705,8.8522e-05,-0.000172308,0.000371777,0.000455552,2.06905e-05,-1.9484e-05
915,0.00051179,-0.0030158,-0.00219997,-0.0124732,0.117009,0.117009,0.117009,0.117009,0.117009,0.117009,0.117009,0.117009,0.117009,-0.882991,0.0926999,-0.516201,1.027,-0.0030158,-0.00219997,-0.0124732,-0.00281167,-0.00046718,-0.00030533,-0.00519784,-0.00357694,-0.00117206,0.117009,-0.00141983,0.0486558,-0.00123816,0.00850504,0.000181207,-0.00590454,0.0684756,-0.0458212,0.0121343,0.00993008,-0.00540726,0.00187098,-0.0162351,-0.00529983,-0.0578734,-0.00281167,-0.00046718,-0.00030533,-0.00519784,-0.00357694,-0.00117206,0,0,0,0,0,0,0,0,0,-0.0004315,-1.68111e-05,-5.97368e-05,-0.000349603,-0.000307912,4.26834e-05,3.90289e-05,-5.5638e-05,0.000339426,0.000287504,-3.4204e-05,-2.8013e-05
916,0.00051179,-0.000188482,-0.00574053,0.00599429,0.0291671,0.0291671,0.0291671,0.0291671,0.0291671,0.0291671,0.0291671,0.0291671,0.0291671,-0.970833,0.912274,-0.785304,1.54644,-0.000188482,-0.00574053,0.00599429,0.00277722,-0.00145194,0.00376616,-0.00196157,-0.0107136,-0.00351478,0.0291671,0.00170423,-0.00367481,-0.00109472,0.006072,0.00364669,0.00176039,-0.0096641,0.000216599,-0.00107068,-0.00129377,0.000304976,-0.000101781,0.000962298,-0.00144416,0.00377158,0.00277722,-0.00145194,0.00376616,-0.00196157,-0.0107136,-0.00351478,0,0,0,0,0,0,0,0,0,-0.00053782,2.6457e-05,-0.0003558,-0.000567865,-0.000329817,0.000330334,-1.11116e-05,7.40074e-05,0.000217021,0.000623131,-0.000178093,-2.0745e-05
917,0.00051179,0.0157179,0.0187179,0.00672478,0.00985925,0.00985925,0.00985925,0.00985925,0.00985925,0.00985925,0.00985925,0.00985925,0.00985925,-0.759859,-0.87763,0.72069,1.36639,0.0157179,0.0187179,0.00672478,0.00478696,-0.00227352,-0.00491703,0.000455389,-0.00903765,0.00413333,0.00985925,0.000360683,-0.0202834,8.59573e-05,-0.00882605,0.00090356,0.000146557,0.00635988,0.00366193,-0.000761079,-0.00845086,-0.000435418,-0.00474854,-0.00144098,-0.00113308,-0.00833611,0.00478696,-0.00227352,-0.00491703,0.000455389,-0.00903765,0.00413333,0,0,0,0,0,0,0,0,0,-0.00044205,1.66895e-05,-0.000410218,-0.000459776,-0.00029006,0.000388343,-1.05771e-05,-8.09597e-05,0.000376649,0.000412071,-1.3771e-05,5.95255e-06
918,0.00051179,0.0056339,-0.0137244,-0.0159177,0.0380955,0.0380955,0.0380955,0.0380955,0.0380955,0.0380955,0.0380955,0.0380955,0.0380955,-0.961905,-0.827665,0.381594,1.3251,0.0056339,-0.0137244,-0.0159177,-0.00400132,-0.00162596,0.00388031,0.00646081,0.0212792,-0.00205635,0.0380955,0.0204731,-0.0973611,0.0158368,-0.0662982,0.00224433,-0.0127206,0.0518211,0.0894828,0.000664247,-0.0051022,-0.0118207,0.00551181,0.0851248,0.00892835,-0.0414153,-0.00400132,-0.00162596,0.00388031,0.00646081,0.0212792,-0.00205635,0,0,0,0,0,0,0,0,0,-0.000312857,4.72024e-05,-0.000713274,-0.000408876,-0.000375623,0.000855383,4.68963e-07,-6.56335e-05,0.000285819,0.000320472,0.000160219,-7.96317e-07
919,0.00051179,0.25354,0.0898082,-0.126823,0.0183713,0.0183713,0.0183713,0.0183713,0.0183713,0.0183713,0.0183713,0.0183713,0.0183713,-0.688812,0.671825,-0.0816287,0.965647,0.25354,0.0898082,-0.126823,0.139103,-0.0569322,-0.281973,-0.135363,-0.0632369,0.00359344,0.0183713,-5.53888,-38.9185,-0.0682536,-1.90267,4.75872,-0.465235,-0.900263,33.9062,-1.1076,1.70393,0.0572347,-0.059735,0.108928,-0.79776,1.08682,0.139103,-0.0569322,-0.281973,-0.135363,-0.0632369,0.00359344,0,0,0,0,0,0,0,0,0,-0.00239394,-0.0184178,-0.000597269,0.0131875,-0.000288511,-0.000654589,0.00236622,-0.000871062,-0.000477239,-0.0206596,0.00081104,0.00461021
920,0.00051179,0.00847781,0.0176722,0.00790287,0.10849,0.10849,0.10849,0.10849,0.10849,0.10849,0.10849,0.10849,0.10849,-0.89151,-0.525055,0.265332,1.06812,0.00847781,0.0176722,0.00790287,-0.0011674,0.000368837,0.00754241,0.00412744,-0.0052894,0.00790872,0.10849,0.170116,-1.28932,-0.00420307,0.0408351,-0.123978,-0.133681,-0.0673404,1.40482,0.0125345,0.174397,0.0254027,0.173249,-0.232905,0.0716816,-0.113811,-0.0011674,0.000368837,0.00754241,0.00412744,-0.0052894,0.00790872,0,0,0,0,0,0,0,0,0,-0.000394352,0.000538741,-0.000456232,-0.000950725,-0.00036707,0.000417889,-0.000222691,0.000163406,0.000292242,-0.000310658,3.77268e-05,9.1951e-05
921,0.00051179,-0.0110273,0.0162318,0.00492737,0.0356397,0.0356397,0.0356397,0.0356397,0.0356397,0.0356397,0.0356397,0.0356397,0.0356397,-0.78564,0.575716,0.418866,1.06025,-0.0110273,0.0162318,0.00492737,0.00513444,-0.00245585,0.0109935,-0.0100021,0.00199653,0.00563224,0.0356397,0.000411823,-0.0224104,-0.00112312,0.015869,-0.00523721,-0.00403748,0.131039,0.0386749,-0.022755,0.00584521,0.00432159,0.0317887,-0.037946,0.0146087,-0.167755,0.00513444,-0.00245585,0.0109935,-0.0100021,0.00199653,0.00563224,0,0,0,0,0,0,0,0,0,-0.000463419,3.57735e-05,0.000415724,-0.00042477,-0.000387872,-0.000451514,-0.000155743,3.76544e-05,0.000319175,0.00049433,2.55268e-05,0.000109247
922,0.00051179,0.00467058,-0.00416943,0.00320965,0.0576594,0.0576594,0.0576594,0.0576594,0.0576594,0.0576594,0.0576594,0.0576594,0.0576594,-0.807659,0.372669,0.338136,0.951594,0.00467058,-0.00416943,0.00320965,-0.0011978,-0.00699983,-0.00368253,0.00278609,-0.0180411,0.00981902,0.0576594,0.00457968,-0.197482,0.00137676,-0.0529388,-0.00316704,-0.0154396,0.364639,0.195979,-0.0169984,-0.0993516,-0.00931271,0.0152094,0.15646,0.0320799,-0.383058,-0.0011978,-0.00699983,-0.00368253,0.00278609,-0.0180411,0.00981902,0,0,0,0,0,0,0,0,0,-0.000496708,-1.89388e-05,0.000312467,-0.000590946,-0.000342572,-0.000368697,-0.00010691,-0.000196759,0.0003011,0.000399725,-7.67794e-05,0.000173646
923,0.00051179,0.0254827,-0.0981981,-0.0922022,0.0299168,0.0299168,0.0299168,0.0299168,0.0299168,0.0299168,0.0299168,0.0299168,0.0299168,-0.779917,0.74442,-0.132421,1.08626,0.0254827,-0.0981981,-0.0922022,0.00989564,-0.0444419,0.00775203,-0.0851158,-0.0498423,0.0010045,0.0299168,-1.37027,-3.8128,0.168114,1.19305,1.24788,-0.607418,-9.73439,2.53943,-0.112344,0.754423,0.0908675,0.860377,-1.84928,-0.299522,8.96622,0.00989564,-0.0444419,0.00775203,-0.0851158,-0.0498423,0.0010045,0,0,0,0,0,0,0,0,0,-0.00133496,-0.00465994,0.000228939,-0.00454919,-0.000103796,0.00100778,0.00115465,-0.000352464,0.000243388,-0.00144746,0.000762716,0.000649363
924,0.00051179,0.0189122,-0.0207216,-0.0256152,0.0517732,0.0517732,0.0517732,0.0517732,0.0517732,0.0517732,0.0517732,0.0517732,0.0517732,-0.948227,0.942285,0.197598,1.35133,0.0189122,-0.0207216,-0.0256152,0.00704416,-0.00103925,-0.0113298,0.000508502,-0.0180236,-0.0222803,0.0517732,0.0983015,1.07094,-0.0448143,-0.133354,0.57439,0.146158,-0.79709,-1.66425,0.000608785,0.0859725,0.0122623,-0.116916,0.0681035,-0.0859909,0.939621,0.00704416,-0.00103925,-0.0113298,0.000508502,-0.0180236,-0.0222803,0,0,0,0,0,0,0,0,0,-0.000170536,0.000528815,0.00111188,0.000324702,-0.000350172,-0.00157042,7.67286e-06,8.17342e-05,0.000258386,0.00102358,-0.000139347,-0.00053927
925,0.00051179,0.0360155,0.0284915,0.0293546,0.0942328,0.0942328,0.0942328,0.0942328,0.0942328,0.0942328,0.0942328,0.0942328,0.0942328,-0.844233,-0.883428,0.0469507,1.22286,0.0360155,0.0284915,0.0293546,-0.0338056,-0.00509567,-0.00659277,0.00938432,0.016479,0.010272,0.0942328,0.515766,5.84712,0.10456,1.03715,0.157551,0.691296,4.00333,-6.04069,0.00784771,0.0920523,0.0805403,0.198371,-1.15769,-0.258452,-4.23106,-0.0338056,-0.00509567,-0.00659277,0.00938432,0.016479,0.010272,0,0,0,0,0,0,0,0,0,-0.000295348,0.00212017,-5.13414e-05,0.0050019,-0.000271672,0.00104598,-0.00020347,0.00192607,0.000599653,0.00184513,-0.000955875,-0.00153053
926,0.00051179,0.0583816,-0.00153202,-0.0227585,0.0292515,0.0292515,0.0292515,0.0292515,0.0292515,0.0292515,0.0292515,0.0292515,0.0292515,-0.970749,-0.850504,0.297538,1.32448,0.0583816,-0.00153202,-0.0227585,-0.00468115,0.000605628,0.0106174,0.00516122,0.0331342,-0.00561862,0.0292515,0.0645047,-0.0485198,0.0319662,-0.110576,0.0320724,-0.00863775,-0.0997775,-0.0419342,0.00432379,0.0348919,-0.0181509,-0.000752151,0.077216,0.00223599,0.123288,-0.00468115,0.000605628,0.0106174,0.00516122,0.0331342,-0.00561862,0,0,0,0,0,0,0,0,0,-0.000263013,0.000223049,-0.000853428,-0.000299412,-0.000377083,0.00117915,-2.86433e-05,-8.23802e-05,0.000281751,0.000319208,0.000232213,-9.29815e-05
927,0.00051179,-1.37601e-05,-0.00227438,0.00481655,0.123897,0.123897,0.123897,0.123897,0.123897,0.123897,0.123897,0.123897,0.123897,-0.876103,-0.0627642,0.87017,1.2364,-1.37601e-05,-0.00227438,0.00481655,-0.00114118,-0.00163963,-0.00102223,0.00170064,-0.000536417,0.00524716,0.123897,0.000985935,-0.00394177,4.05386e-05,-0.00241775,0.000344631,0.000162926,0.00417214,0.0036109,-0.000197934,0.000243623,-0.00037236,-0.00028063,0.00444851,-0.00043248,-0.00870806,-0.00114118,-0.00163963,-0.00102223,0.00170064,-0.000536417,0.00524716,0,0,0,0,0,0,0,0,0,-0.000686027,-7.88638e-06,-4.37252e-05,-0.000240607,-0.00033542,2.77342e-05,4.03374e-07,1.73782e-05,0.000322975,0.000232014,-2.6466e-05,1.69632e-05
928,0.00051179,0.0170768,-0.00936689,-0.0146441,0.0307171,0.0307171,0.0307171,0.0307171,0.0307171,0.0307171,0.0307171,0.0307171,0.0307171,-0.969283,-0.114626,-0.0424953,0.976962,0.0170768,-0.00936689,-0.0146441,0.00599501,-0.00994059,0.00161087,0.00480875,-0.00139328,-0.00249914,0.0307171,-0.0468633,-0.345799,0.0261787,0.0712298,-0.158943,0.0735363,0.235708,0.487665,-0.00779166,0.0595238,-0.0384561,0.210825,-0.121387,0.00540563,-0.431889,0.00599501,-0.00994059,0.00161087,0.00480875,-0.00139328,-0.00249914,0,0,0,0,0,0,0,0,0,-0.000561677,-0.000157098,7.56349e-05,0.000315345,-0.000344986,8.67459e-05,3.23293e-05,-0.000233141,0.000369988,0.000436126,-0.000165353,6.17764e-05
929,0.00051179,0.00279705,-0.00098318,0.000153927,0.0263318,0.0263318,0.0263318,0.0263318,0.0263318,0.0263318,0.0263318,0.0263318,0.0263318,-0.920062,0.49071,0.973668,1.42665,0.00279705,-0.00098318,0.000153927,-9.62846e-05,-0.000199659,-0.00209927,0.00776813,-0.00153764,0.00626997,0.0263318,0.00112362,-6.80528e-05,-0.000274353,-0.00209521,-0.000152978,0.000371344,0.00111073,-0.00257602,-0.00035304,-0.000587095,-6.50436e-05,-0.000225401,0.00366549,-0.00156232,-0.00103926,-9.62846e-05,-0.000199659,-0.00209927,0.00776813,-0.00153764,0.00626997,0,0,0,0,0,0,0,0,0,-0.000672087,-1.00365e-05,0.000183099,-0.000334109,-0.000323618,-0.000187839,2.19023e-05,2.3539e-05,0.000297002,0.00031683,-3.95659e-05,8.3651e-06
930,0.00051179,0.0101948,0.00582019,-0.00500744,0.114687,0.114687,0.114687,0.114687,0.114687,0.114687,0.114687,0.114687,0.114687,-0.864687,-0.877535,0.483861,1.32358,0.0101948,0.00582019,-0.00500744,-0.000636074,-0.00205554,-0.00232096,-0.000468282,-0.00628524,0.00424472,0.114687,0.00166292,0.0235424,0.001521,-0.0386076,0.00515998,0.00109613,0.0109897,-0.0388972,-0.000928955,-0.0130844,-0.00333068,-0.0174026,0.0458718,-0.000407234,0.0114203,-0.000636074,-0.00205554,-0.00232096,-0.000468282,-0.00628524,0.00424472,0,0,0,0,0,0,0,0,0,-0.000328131,1.13375e-06,-0.000595309,-0.000512014,-0.000318373,0.000589963,-1.09867e-05,-0.000140457,0.000325941,0.000499766,4.42981e-05,1.51869e-05
931,0.00051179,0.00382537,-0.00459756,-0.0188287,0.0750076,0.0750076,0.0750076,0.0750076,0.0750076,0.0750076,0.0750076,0.0750076,0.0750076,-0.924992,0.709968,-0.424268,1.24083,0.00382537,-0.00459756,-0.0188287,-0.00661227,-0.00200222,0.00164547,-0.00352296,-0.00641522,-0.00218248,0.0750076,-0.0197031,0.260636,0.00437278,-0.0463134,-0.00317593,-0.020511,0.161475,-0.261285,0.010582,-0.00433641,0.00675894,0.0475771,0.0552474,-0.0168373,-0.190223,-0.00661227,-0.00200222,0.00164547,-0.00352296,-0.00641522,-0.00218248,0,0,0,0,0,0,0,0,0,-0.000646226,-8.74123e-05,-0.000562173,-0.000532687,-0.000275487,0.000585879,7.94599e-05,0.000155107,0.000275075,0.000344031,-0.00015167,-5.09339e-05
932,0.00051179,0.00241899,-0.0109431,0.0139579,0.0772067,0.0772067,0.0772067,0.0772067,0.0772067,0.0772067,0.0772067,0.0772067,0.0772067,-0.827207,-0.521418,0.285577,1.01868,0.00241899,-0.0109431,0.0139579,0.000319306,-0.00115083,-0.0194661,0.00292819,0.00706536,0.0102852,0.0772067,0.040499,-1.15569,0.00220329,0.067533,-0.0553546,-0.0685618,1.03994,1.20862,-0.0352016,0.15917,0.0131614,0.14901,-0.21576,0.089195,-1.2029,0.000319306,-0.00115083,-0.0194661,0.00292819,0.00706536,0.0102852,0,0,0,0,0,0,0,0,0,-0.000400059,7.94471e-05,-0.000461996,-0.00116888,-0.000336999,0.000472521,-0.000286012,0.000174286,0.000296071,0.000288601,2.79816e-05,0.000372757
933,0.00051179,0.038352,0.0763595,0.0845289,0.000753964,0.000753964,0.000753964,0.000753964,0.000753964,0.000753964,0.000753964,0.000753964,0.000753964,-0.750754,-0.0880442,0.0735743,0.759471,0.038352,0.0763595,0.0845289,-0.0330581,0.00855051,0.0894834,-0.0353061,-0.00745053,0.0250248,0.000753964,0.336905,2.68877,-0.129241,-1.8099,1.57241,0.0414861,-1.04155,-4.29954,0.318023,-0.356112,-0.0212983,0.209998,2.08965,-0.000178542,0.747025,-0.0330581,0.00855051,0.0894834,-0.0353061,-0.00745053,0.0250248,0,0,0,0,0,0,0,0,0,-0.000410162,0.000813763,-0.000598324,0.00146917,-0.00040313,-0.000608579,0.000708112,-0.000446987,0.000376053,-0.000159473,0.000159499,-0.000581242
934,0.00051179,0.00475798,0.00188275,-0.00828557,0.0254684,0.0254684,0.0254684,0.0254684,0.0254684,0.0254684,0.0254684,0.0254684,0.0254684,-0.775468,-0.665768,-0.942577,1.39034,0.00475798,0.00188275,-0.00828557,-0.00335628,0.00561235,-0.00153912,-0.00514204,-0.00560193,0.00191919,0.0254684,0.000722185,-0.00835908,-0.000262193,0.00359146,0.000450928,0.000565659,-0.0050305,0.00315018,5.53709e-05,1.1515e-05,0.000174703,4.63677e-05,-0.00548573,-6.09867e-05,0.0132697,-0.00335628,0.00561235,-0.00153912,-0.00514204,-0.00560193,0.00191919,0,0,0,0,0,0,0,0,0,-0.000395872,-6.40596e-06,0.000266882,-0.000432359,-0.000317538,-0.00021338,-1.86689e-05,-0.000120586,0.00037159,0.000422624,6.63138e-05,1.60555e-05
935,0.00051179,-0.0482006,0.0251986,0.0480728,0.0551845,0.0551845,0.0551845,0.0551845,0.0551845,0.0551845,0.0551845,0.0551845,0.0551845,-0.694815,0.689789,-0.0402948,0.979898,-0.0482006,0.0251986,0.0480728,-0.000719905,-0.0263694,0.0610456,-0.0214413,0.00338048,-0.0201686,0.0551845,-2.30194,-14.8844,-0.0264655,-0.521595,2.03592,0.491408,-9.42827,12.8967,-0.458559,0.839268,0.0262161,-1.40598,-0.342872,-0.460861,10.7862,-0.000719905,-0.0263694,0.0610456,-0.0214413,0.00338048,-0.0201686,0,0,0,0,0,0,0,0,0,-0.00153379,-0.00774749,-0.000245,0.0220865,-0.0002841,-0.000283349,0.00136579,-0.000836223,-0.00024122,-0.016562,0.00113219,0.00136064
936,0.00051179,0.0010005,-0.00240917,-0.00147906,0.0795672,0.0795672,0.0795672,0.0795672,0.0795672,0.0795672,0.0795672,0.0795672,0.0795672,-0.829567,-0.783397,-0.797414,1.39203,0.0010005,-0.00240917,-0.00147906,-0.00324611,0.00222976,0.00258644,-0.00150799,-0.00210254,0.00161707,0.0795672,0.000881985,0.00177801,-0.000750206,0.00371406,3.45359e-05,0.000448346,-0.0069914,-0.00281304,-0.000375139,0.00302907,-0.000460238,6.10722e-05,-0.00433397,0.000853363,0.00840939,-0.00324611,0.00222976,0.00258644,-0.00150799,-0.00210254,0.00161707,0,0,0,0,0,0,0,0,0,-0.000495076,-9.77046e-06,0.000331892,-0.000467793,-0.000319356,-0.000317096,-7.36545e-06,-0.000133289,0.000339247,0.000498141,0.000107661,1.44024e-05
937,0.00051179,0.00254308,0.00438943,0.0016503,0.0953574,0.0953574,0.0953574,0.0953574,0.0953574,0.0953574,0.0953574,0.0953574,0.0953574,-0.845357,0.71004,-0.575071,1.24479,0.00254308,0.00438943,0.0016503,-0.00269861,-0.00216149,0.000681017,0.00286339,0.00847381,-0.00196462,0.0953574,0.000936761,0.014489,-0.00117909,0.00900996,0.000100016,-0.00145977,0.0281304,-0.0171321,0.0069371,-0.026994,-0.000116396,0.00520126,0.0135946,-0.000586372,-0.034982,-0.00269861,-0.00216149,0.000681017,0.00286339,0.00847381,-0.00196462,0,0,0,0,0,0,0,0,0,-0.000571229,-1.51412e-05,-0.000444143,-0.000496619,-0.00026148,0.000410737,4.26706e-05,0.000165839,0.000317477,0.000488831,-8.22644e-05,-1.90869e-05
938,0.00051179,-0.0288293,0.0323933,0.00164306,0.102411,0.102411,0.102411,0.102411,0.102411,0.102411,0.102411,0.102411,0.102411,-0.897589,-0.758337,0.184874,1.1895,-0.0288293,0.0323933,0.00164306,0.00501395,-0.00122365,0.0127526,-0.00227084,0.00656748,0.0048511,0.102411,0.416232,1.54915,0.0710555,0.00990035,-0.273992,-0.0970183,-1.99871,-1.24633,0.0196213,0.209357,-0.0201003,0.215311,-0.25165,-0.0375558,1.78176,0.00501395,-0.00122365,0.0127526,-0.00227084,0.00656748,0.0048511,0,0,0,0,0,0,0,0,0,-0.000228219,0.00163789,-0.000366737,-0.000511298,-0.00029924,0.00106506,-0.000381584,3.62375e-07,0.000320368,-0.000331358,-0.000135691,-0.00063186
939,0.00051179,-0.0183682,-0.000616223,0.010428,0.0861857,0.0861857,0.0861857,0.0861857,0.0861857,0.0861857,0.0861857,0.0861857,0.0861857,-0.836186,0.825136,0.00499352,1.17477,-0.0183682,-0.000616223,0.010428,-0.00912493,0.000820262,0.004031,-0.00852756,-0.00472457,-0.0107287,0.0861857,0.0641387,0.561807,-0.020285,-0.177195,-0.0737442,0.79967,5.51778,-0.469695,0.0115237,-0.0528972,-0.125289,-0.102266,0.230709,-0.027486,-5.42594,-0.00912493,0.000820262,0.004031,-0.00852756,-0.00472457,-0.0107287,0,0,0,0,0,0,0,0,0,-0.000550278,0.000252228,-2.23856e-05,0.0067574,-0.000304157,-0.000172262,-7.85991e-06,-0.00206448,0.000563048,0.00127961,0.000764342,-0.000213914
940,0.00051179,0.00221961,0.00411933,-0.00729582,0.0640859,0.0640859,0.0640859,0.0640859,0.0640859,0.0640859,0.0640859,0.0640859,0.0640859,-0.814086,0.419042,-0.787031,1.20737,0.00221961,0.00411933,-0.00729582,-0.00648892,0.000481993,0.00174132,0.00539793,0.00296488,-0.00250883,0.0640859,0.000283793,0.006423,-0.000712983,0.00492125,0.000471113,0.000166912,0.000999961,-0.00911372,0.00140209,-0.00312959,-0.00071694,0.000539467,-0.00591099,0.000799544,0.00575639,-0.00648892,0.000481993,0.00174132,0.00539793,0.00296488,-0.00250883,0,0,0,0,0,0,0,0,0,-0.000391178,-2.97398e-05,-0.000209177,-0.000369459,-0.000287408,0.000206867,3.52859e-05,7.46628e-05,0.000352249,0.000388541,-5.21833e-05,-7.26059e-06
941,0.00051179,-0.00714898,-0.0162523,-0.00592307,0.012168,0.012168,0.012168,0.012168,0.012168,0.012168,0.012168,0.012168,0.012168,-0.762168,-0.0166944,0.373946,0.849126,-0.00714898,-0.0162523,-0.00592307,-0.00329662,0.00540453,-0.00829938,-0.00202726,0.0015101,-0.012449,0.012168,0.000183955,-2.5591e-05,7.91028e-05,0.013948,0.0013814,-0.00241223,0.0921735,0.00579316,-0.00423058,-0.012024,-0.000711015,-0.0123912,0.0143283,0.00917092,-0.0738593,-0.00329662,0.00540453,-0.00829938,-0.00202726,0.0015101,-0.012449,0,0,0,0,0,0,0,0,0,-0.000574253,-9.68774e-07,-7.77619e-06,-0.00031463,-0.000342781,6.26125e-05,-1.66946e-05,2.96692e-05,0.000337347,0.000207513,-2.16784e-05,-1.79598e-06
942,0.00051179,0.0159934,-0.00547476,0.0113227,0.0437811,0.0437811,0.0437811,0.0437811,0.0437811,0.0437811,0.0437811,0.0437811,0.0437811,-0.956219,0.0810618,0.42903,1.05119,0.0159934,-0.00547476,0.0113227,-0.00228496,-0.000936109,0.00034386,0.0021178,-0.00169067,0.00373955,0.0437811,0.0136333,-0.103048,0.00242538,-0.0316635,0.00871582,-0.0163046,0.0498537,0.0783386,0.0306622,-0.0250291,-0.0023919,-0.0286213,0.0621674,0.0155186,-0.032555,-0.00228496,-0.000936109,0.00034386,0.0021178,-0.00169067,0.00373955,0,0,0,0,0,0,0,0,0,-0.000584789,-1.63964e-05,6.56362e-05,-0.000284586,-0.000335002,-5.07435e-05,9.07615e-05,-8.71907e-06,0.000294656,0.000124979,-3.21067e-05,2.31526e-05
943,0.00051179,-0.00162699,0.00145403,0.0025388,0.0784038,0.0784038,0.0784038,0.0784038,0.0784038,0.0784038,0.0784038,0.0784038,0.0784038,-0.921596,-0.795966,0.786359,1.44957,-0.00162699,0.00145403,0.0025388,-0.00111272,-0.00129814,-0.00156699,0.00361774,0.00718437,0.00571627,0.0784038,0.00101663,-0.00930868,0.00039757,-0.00330605,0.002058,-9.33222e-05,0.00687863,0.00887766,-0.00025587,-0.00306668,-0.000793473,-0.00232169,0.00491871,-0.00135104,-0.00709573,-0.00111272,-0.00129814,-0.00156699,0.00361774,0.00718437,0.00571627,0,0,0,0,0,0,0,0,0,-0.000501774,-9.28546e-06,-0.000358993,-0.000405921,-0.000352854,0.000349987,8.00432e-06,1.90226e-05,0.00031016,0.000389318,4.48864e-05,1.30212e-05
944,0.00051179,0.0164107,-0.000629425,-0.0121015,0.030321,0.030321,0.030321,0.030321,0.030321,0.030321,0.030321,0.030321,0.030321,-0.780321,-0.77933,-0.463446,1.19626,0.0164107,-0.000629425,-0.0121015,-0.0167313,0.00704256,0.00569936,0.0102238,-0.0237061,0.00845543,0.030321,0.00118531,-0.00855144,-0.00158023,-0.000577939,0.00146039,0.000566453,0.0187945,-0.00931965,0.00721212,0.0499897,-0.00750539,-0.00856134,-0.0487823,0.00110018,0.00186838,-0.0167313,0.00704256,0.00569936,0.0102238,-0.0237061,0.00845543,0,0,0,0,0,0,0,0,0,-0.000661634,-9.09364e-05,0.000539667,-0.000581957,-0.000407452,-0.000485044,7.39731e-05,-0.000308113,0.000372939,0.000644615,-4.00165e-06,3.45717e-05
945,0.00051179,0.00234662,-0.00409904,-0.00188169,0.0723075,0.0723075,0.0723075,0.0723075,0.0723075,0.0723075,0.0723075,0.0723075,0.0723075,-0.822308,0.0284443,0.604885,1.02122,0.00234662,-0.00409904,-0.00188169,-0.00145779,-0.00198428,-0.000397956,-0.00192618,-0.000135951,0.00424952,0.0723075,0.000806943,-0.0123521,0.000231512,0.00768083,0.000244517,-0.000537656,0.0157674,0.00976091,-0.00497575,-0.000757046,-0.000812609,-0.000741417,-0.00282474,0.00183817,-0.0131443,-0.00145779,-0.00198428,-0.000397956,-0.00192618,-0.000135951,0.00424952,0,0,0,0,0,0,0,0,0,-0.000630513,-1.56372e-06,1.66911e-05,-0.000204983,-0.00033989,-3.42187e-05,-3.28192e-05,1.35288e-05,0.000324883,0.000195627,-2.30144e-05,3.21289e-05
946,0.00051179,-0.00113002,0.00240335,-0.00979532,0.0986976,0.0986976,0.0986976,0.0986976,0.0986976,0.0986976,0.0986976,0.0986976,0.0986976,-0.848698,0.129325,-0.547188,1.01805,-0.00113002,0.00240335,-0.00979532,-0.00411242,0.000585394,0.0015667,-0.00104424,-0.00301282,-0.000343482,0.0986976,0.000225261,0.0175589,-0.00131022,0.0100227,0.000304778,-0.00312077,0.0476694,-0.0167336,0.0155343,0.00399937,-0.00453916,0.00388466,-0.0164254,-0.00318194,-0.0417588,-0.00411242,0.000585394,0.0015667,-0.00104424,-0.00301282,-0.000343482,0,0,0,0,0,0,0,0,0,-0.000424348,-2.76021e-05,-8.39248e-05,-0.000328695,-0.000302577,7.66766e-05,6.42841e-05,-3.78012e-05,0.000349194,0.000313155,-3.77187e-05,-2.57935e-05
947,0.00051179,0.0324357,-0.00998321,0.00805849,0.0876615,0.0876615,0.0876615,0.0876615,0.0876615,0.0876615,0.0876615,0.0876615,0.0876615,-0.837662,-0.00973375,-0.163918,0.853605,0.0324357,-0.00998321,0.00805849,-0.0104261,0.00366618,0.00710962,0.00318446,0.00183219,0.00337549,0.0876615,-0.131804,-0.232624,-0.00520109,-0.0112968,-0.438588,-0.0564307,-0.773137,0.638776,-0.108268,0.00730677,-0.0102001,-0.197782,0.0139732,-0.0026376,0.96286,-0.0104261,0.00366618,0.00710962,0.00318446,0.00183219,0.00337549,0,0,0,0,0,0,0,0,0,-0.000610948,-0.000426641,2.04737e-05,-0.000485038,-0.000328356,-3.58228e-05,-0.000240908,-5.05612e-05,0.000352219,-8.17282e-06,-3.31177e-05,0.000288201
948,0.00051179,-0.0430304,0.0539425,-0.0266857,0.0136277,0.0136277,0.0136277,0.0136277,0.0136277,0.0136277,0.0136277,0.0136277,0.0136277,-0.986372,-0.603147,0.144797,1.1652,-0.0430304,0.0539425,-0.0266857,-0.0381447,-0.0188542,0.0253071,0.030607,0.0100092,0.0411276,0.0136277,0.396454,2.0216,0.0440844,-0.220154,-0.30929,0.00623282,-0.32908,-1.66928,0.0559407,0.166802,0.00181567,-0.0162729,-0.000590709,-0.0529117,0.372039,-0.0381447,-0.0188542,0.0253071,0.030607,0.0100092,0.0411276,0,0,0,0,0,0,0,0,0,-0.00043989,0.00129185,-0.000378462,0.000621377,-0.000417465,0.000630764,-6.69612e-05,-7.70027e-06,0.000394285,-0.000305978,0.000125949,-0.00055862
949,0.00051179,0.0112779,0.0011037,-0.00621389,0.0894575,0.0894575,0.0894575,0.0894575,0.0894575,0.0894575,0.0894575,0.0894575,0.0894575,-0.910542,-0.157383,0.476589,1.03971,0.0112779,0.0011037,-0.00621389,-0.00136663,0.000502013,0.000937628,0.00354876,0.00100346,0.00401078,0.0894575,0.00672461,-0.0870517,-0.00104975,0.000929917,0.00117933,-0.00890659,0.0760944,0.0745945,0.0139082,0.0141127,0.00301614,-0.00477461,-0.0161463,0.0113422,-0.0651059,-0.00136663,0.000502013,0.000937628,0.00354876,0.00100346,0.00401078,0,0,0,0,0,0,0,0,0,-0.000592507,-1.725e-05,-0.000116973,-0.000241418,-0.000349903,0.000111496,4.3245e-05,6.21153e-05,0.000310339,0.000161729,-2.19192e-05,3.27248e-05
950,0.00051179,-0.000434892,-0.00131846,0.00297727,0.0912038,0.0912038,0.0912038,0.0912038,0.0912038,0.0912038,0.0912038,0.0912038,0.0912038,-0.853374,-0.672659,0.908796,1.41655,-0.000434892,-0.00131846,0.00297727,-0.0026158,-0.000114303,-0.00176297,0.00110254,-0.000817639,0.00430483,0.0912038,0.00100447,-0.000722362,-0.000117116,-0.00222583,0.000302556,0.0004788,-0.000388801,0.000854698,-0.000665637,-0.000107412,-0.000505833,0.000525996,0.0036517,-0.00104963,-0.00311446,-0.0026158,-0.000114303,-0.00176297,0.00110254,-0.000817639,0.00430483,0,0,0,0,0,0,0,0,0,-0.000589125,-1.04575e-05,-0.000277992,-0.000376853,-0.000331217,0.000275678,-2.16373e-07,-1.50981e-05,0.000340253,0.000364012,1.86343e-06,1.38751e-05
951,0.00051179,-0.0103623,-0.00337295,-0.014655,0.0525493,0.0525493,0.0525493,0.0525493,0.0525493,0.0525493,0.0525493,0.0525493,0.0525493,-0.947451,0.0543728,-0.40105,1.03027,-0.0103623,-0.00337295,-0.014655,-0.00402759,-0.00132346,-0.00186425,0.00492201,-0.00769133,-0.00325348,0.0525493,-0.015408,0.0690969,0.00173391,-0.025291,-0.00684904,-0.0200336,0.0157891,-0.0518856,-0.0205715,0.00829043,-0.00360814,-0.0166167,0.0203735,-0.0116703,0.0154826,-0.00402759,-0.00132346,-0.00186425,0.00492201,-0.00769133,-0.00325348,0,0,0,0,0,0,0,0,0,-0.000473447,-3.94754e-05,-3.78891e-05,-0.000429212,-0.000319595,4.19935e-05,-2.05449e-05,-8.44365e-05,0.000320517,0.000210233,-2.85582e-05,-1.69163e-05
952,0.00051179,0.00157925,0.000464167,0.00763976,0.0378487,0.0378487,0.0378487,0.0378487,0.0378487,0.0378487,0.0378487,0.0378487,0.0378487,-0.787849,0.775041,0.617857,1.26615,0.00157925,0.000464167,0.00763976,-0.000268802,-0.0014089,0.000554785,-0.00326673,0.0164509,-0.000967378,0.0378487,0.000272706,-0.00771714,0.000334091,-0.00213856,-0.000874868,0.000201371,0.00703714,0.00701276,-0.00363966,0.0101824,-0.000524125,0.00228808,-0.00850799,-0.000247482,-0.016965,-0.000268802,-0.0014089,0.000554785,-0.00326673,0.0164509,-0.000967378,0,0,0,0,0,0,0,0,0,-0.000464842,9.38569e-06,0.000397347,-0.000442006,-0.000382716,-0.000408095,-2.51658e-05,0.000135496,0.000335149,0.000449568,2.37708e-05,3.29186e-06
953,0.00051179,-0.00448112,0.00261462,0.00230949,0.0271398,0.0271398,0.0271398,0.0271398,0.0271398,0.0271398,0.0271398,0.0271398,0.0271398,-0.97286,0.948036,0.75003,1.5517,-0.00448112,0.00261462,0.00230949,2.76626e-05,-0.00230052,0.00235969,0.000378013,-0.00556359,0.0114528,0.0271398,0.00118198,-0.00614733,0.0006615,-0.00290305,-0.00257587,-0.000340264,0.0122932,0.0132043,-0.000304418,-9.06005e-05,-0.00110845,0.00394228,0.000379038,-0.00144186,-0.018545,2.76626e-05,-0.00230052,0.00235969,0.000378013,-0.00556359,0.0114528,0,0,0,0,0,0,0,0,0,-0.000463136,-6.98359e-06,0.000336526,-0.000520098,-0.000306303,-0.000352917,-1.26638e-05,5.06001e-06,0.000241071,0.000540292,-7.17805e-05,3.70231e-05
954,0.00051179,0.00151295,-0.0220014,-0.094143,0.00696232,0.00696232,0.00696232,0.00696232,0.00696232,0.00696232,0.00696232,0.00696232,0.00696232,-0.756962,-0.964947,-0.282061,1.25844,0.00151295,-0.0220014,-0.094143,-0.122556,0.0153736,0.118879,0.00634046,-0.0459523,0.206624,0.00696232,0.00350542,0.00589165,-0.000340872,0.168339,-0.0195843,-0.00114514,0.191255,0.0121797,-0.00434308,0.00801679,-0.0100056,-0.266701,-0.154355,0.0192527,0.16959,-0.122556,0.0153736,0.118879,0.00634046,-0.0459523,0.206624,0,0,0,0,0,0,0,0,0,-0.000928454,-0.00072082,0.000598815,-0.00127255,-0.000522221,-0.000448488,-0.000115578,-0.000989563,0.000437446,0.00244989,0.000429984,0.00100382
955,0.00051179,0.123157,0.0598211,0.0801916,0.0558451,0.0558451,0.0558451,0.0558451,0.0558451,0.0558451,0.0558451,0.0558451,0.0558451,-0.805845,-0.854888,0.0950224,1.17866,0.123157,0.0598211,0.0801916,-0.012632,0.0206303,0.0237136,0.0389071,-0.00937311,0.025237,0.0558451,1.22994,14.0045,0.217353,2.13389,-0.147355,0.205471,-3.58212,-13.9803,0.0368073,0.433599,-0.0107207,0.23405,-2.62731,-0.382971,3.26788,-0.012632,0.0206303,0.0237136,0.0389071,-0.00937311,0.025237,0,0,0,0,0,0,0,0,0,4.7408e-05,0.00500736,0.000342678,0.00233822,-0.000143373,0.00203715,-0.000700608,0.00109379,0.000491112,-4.63668e-05,-0.00129473,-0.00286785
956,0.00051179,-0.446223,-0.154961,-0.0505867,0.00580805,0.00580805,0.00580805,0.00580805,0.00580805,0.00580805,0.00580805,0.00580805,0.00580805,-0.744192,-0.951035,-0.11226,1.2128,-0.446223,-0.154961,-0.0505867,0.00784689,-0.417092,0.33653,-0.0380691,-0.305044,0.29823,0.00580805,-1.70076,-11.4348,-0.228515,-1.2825,-3.40222,-0.403349,-16.232,15.2832,-0.0116394,-0.283817,-0.134391,-1.70211,1.72128,0.0500058,17.9847,0.00784689,-0.417092,0.33653,-0.0380691,-0.305044,0.29823,0,0,0,0,0,0,0,0,0,-0.00152693,-0.00685565,0.00114105,-0.00468301,-0.000926698,-0.00759712,0.00136036,-0.000906628,0.000711702,0.00401483,-0.00348772,0.00335008
957,0.00051179,0.0016806,0.0009799,-0.00365564,0.10775,0.10775,0.10775,0.10775,0.10775,0.10775,0.10775,0.10775,0.10775,-0.85775,0.34107,-0.714108,1.16705,0.0016806,0.0009799,-0.00365564,-0.00471563,-0.000387905,0.00147597,0.00307316,-9.97321e-05,-0.00327138,0.10775,-3.16948e-05,0.0120185,-0.00128644,0.0113759,0.00116241,-0.000757519,0.00398787,-0.0148615,0.00283752,-0.00366338,-0.000880721,0.00230818,-0.00869241,0.000363145,-0.00264041,-0.00471563,-0.000387905,0.00147597,0.00307316,-9.97321e-05,-0.00327138,0,0,0,0,0,0,0,0,0,-0.000400491,-2.17233e-05,-0.000191227,-0.000345418,-0.000293994,0.000174484,3.15667e-05,4.60592e-05,0.000339314,0.000352603,-5.58637e-05,-1.25279e-05
958,0.00051179,0.00403746,-0.0166682,-0.00593573,0.0375525,0.0375525,0.0375525,0.0375525,0.0375525,0.0375525,0.0375525,0.0375525,0.0375525,-0.787553,-0.791045,-0.608374,1.27126,0.00403746,-0.0166682,-0.00593573,-0.00650031,0.000962988,0.00389989,0.000683801,-0.0126958,0.0062106,0.0375525,0.00167562,-0.00573059,-0.000713579,0.0122599,-0.00112581,0.000301458,0.0109307,0.00281894,0.00462006,0.0248705,-0.0028729,-0.0038786,-0.0204621,0.00152491,-0.00111639,-0.00650031,0.000962988,0.00389989,0.000683801,-0.0126958,0.0062106,0,0,0,0,0,0,0,0,0,-0.000589348,-3.36019e-05,0.000438735,-0.000496531,-0.000367338,-0.000436241,1.70408e-05,-0.000219425,0.000363961,0.000538545,6.37381e-05,2.91991e-05
959,0.00051179,-0.00342193,0.0055156,0.00258565,0.0659047,0.0659047,0.0659047,0.0659047,0.0659047,0.0659047,0.0659047,0.0659047,0.0659047,-0.934095,0.827751,0.617068,1.39229,-0.00342193,0.0055156,0.00258565,0.000777423,-0.00134814,0.0015366,0.00379625,-0.00538425,0.00741965,0.0659047,0.00243987,-0.0228419,-0.00082653,0.0143463,0.00390199,-0.00243604,0.0259207,0.0223618,-0.000273781,-0.00682523,-0.000601269,-0.00165996,-0.0130367,0.00200136,-0.0268463,0.000777423,-0.00134814,0.0015366,0.00379625,-0.00538425,0.00741965,0,0,0,0,0,0,0,0,0,-0.000443153,-2.56057e-06,0.000407798,-0.000474642,-0.000322694,-0.000429545,-1.0347e-06,2.86966e-05,0.000266731,0.000465647,-8.85518e-05,2.8458e-05
960,0.00051179,0.012222,0.00127992,-0.00549858,0.0482023,0.0482023,0.0482023,0.0482023,0.0482023,0.0482023,0.0482023,0.0482023,0.0482023,-0.937433,-0.951798,-0.940769,1.63394,0.012222,0.00127992,-0.00549858,-0.00776062,0.00142918,0.0021529,-0.00201557,-0.000229497,0.00199237,0.0482023,0.0030634,-0.0218317,-0.000636153,0.00145088,-0.00276081,8.65832e-05,0.00394827,0.0123706,-0.000388326,-0.00296267,-0.000248533,-0.00238657,0.000231876,-0.00137751,0.00393689,-0.00776062,0.00142918,0.0021529,-0.00201557,-0.000229497,0.00199237,0,0,0,0,0,0,0,0,0,-0.000476889,-1.6002e-05,0.000275107,-0.000516234,-0.000268186,-0.000267176,-4.53533e-06,-0.000110226,0.000261948,0.000538629,0.000105445,1.05584e-05
961,0.00051179,-0.0104214,-0.00278633,0.00463077,0.0402256,0.0402256,0.0402256,0.0402256,0.0402256,0.0402256,0.0402256,0.0402256,0.0402256,-0.790226,0.402278,-0.343384,0.950893,-0.0104214,-0.00278633,0.00463077,-0.0138593,0.000612672,0.00251141,0.00381341,-0.0147933,0.00476095,0.0402256,-0.00152384,0.159114,0.00117106,-0.0137101,0.00636697,-0.00938371,0.381179,-0.15506,0.0443489,0.0437911,-0.00441661,0.0396221,-0.0272947,-0.033377,-0.425432,-0.0138593,0.000612672,0.00251141,0.00381341,-0.0147933,0.00476095,0,0,0,0,0,0,0,0,0,-0.00057146,-8.17193e-05,-0.00033197,-0.000720619,-0.000265444,0.000349808,0.000236008,-0.000137499,0.000343464,0.000651896,-5.46002e-05,-0.000147884
962,0.00051179,-0.00376625,-0.00125008,0.00126581,0.0288372,0.0288372,0.0288372,0.0288372,0.0288372,0.0288372,0.0288372,0.0288372,0.0288372,-0.971163,-0.560366,0.790893,1.37211,-0.00376625,-0.00125008,0.00126581,-0.000595135,-0.00146159,-0.00257848,0.0113571,0.00712918,0.00171543,0.0288372,0.00119032,-0.0165245,0.000888176,-0.00587589,1.37723e-05,-0.0010672,0.0296476,0.0202769,0.000287099,0.000919004,-0.000826994,0.00158638,0.00620697,-6.00144e-06,-0.0324998,-0.000595135,-0.00146159,-0.00257848,0.0113571,0.00712918,0.00171543,0,0,0,0,0,0,0,0,0,-0.00057973,-1.31188e-05,-0.000288704,-0.000299669,-0.000363076,0.000282969,4.21261e-05,3.32102e-05,0.000304163,0.000263213,2.98117e-05,-7.54763e-06
963,0.00051179,-0.013761,-0.00697839,0.000613511,0.113082,0.113082,0.113082,0.113082,0.113082,0.113082,0.113082,0.113082,0.113082,-0.863082,-0.604158,-0.360411,1.11347,-0.013761,-0.00697839,0.000613511,-0.0050876,-0.0003113,-0.000738721,0.00410041,-0.0028049,-0.00769213,0.113082,-0.0268831,0.569184,-0.00335782,0.0233786,0.0336649,-0.0381208,0.50372,-0.589088,0.0185123,-0.0131747,-0.00911532,0.0557476,-0.00322546,-0.0420566,-0.560082,-0.0050876,-0.0003113,-0.000738721,0.00410041,-0.0028049,-0.00769213,0,0,0,0,0,0,0,0,0,-0.000626981,-9.16536e-05,0.000459866,-0.000733468,-0.000370676,-0.000496557,0.000181264,-0.000145558,0.000323638,0.000344873,2.63557e-05,-0.000180543
964,0.00051179,-0.0379925,-0.0191413,0.0109403,0.115417,0.115417,0.115417,0.115417,0.115417,0.115417,0.115417,0.115417,0.115417,-0.865417,0.30645,0.111909,0.924869,-0.0379925,-0.0191413,0.0109403,0.0141117,-0.0116905,-0.00519317,-0.00176872,0.0161644,0.00662273,0.115417,0.46626,3.1264,0.12454,1.15952,0.119187,0.00519382,-0.875538,-3.2076,0.140033,0.0739893,-0.0136534,-0.0257524,-1.21437,-0.106112,0.89035,0.0141117,-0.0116905,-0.00519317,-0.00176872,0.0161644,0.00662273,0,0,0,0,0,0,0,0,0,-0.000367127,0.00180284,0.000688156,0.000437337,-0.000256861,0.00044034,9.23057e-05,4.44247e-05,0.000348307,-0.00043733,-1.93149e-05,-0.00109646
965,0.00051179,-0.000188202,0.00237118,-0.0035558,0.045461,0.045461,0.045461,0.045461,0.045461,0.045461,0.045461,0.045461,0.045461,-0.954539,-0.546049,0.614677,1.25982,-0.000188202,0.00237118,-0.0035558,0.00358767,-0.000805892,-0.00364625,0.00623978,0.00592402,-0.00176527,0.045461,0.00346042,-0.0331794,0.000140972,0.0048089,-0.0064953,-0.0050078,0.0383155,0.0398629,0.00667439,0.011145,-0.000184006,0.00939969,-0.0183251,0.00632941,-0.0441593,0.00358767,-0.000805892,-0.00364625,0.00623978,0.00592402,-0.00176527,0,0,0,0,0,0,0,0,0,-0.00053329,6.94076e-06,-0.000344182,-0.000285254,-0.000364149,0.000337532,3.62711e-05,3.84473e-05,0.000309996,0.000198714,1.89528e-05,-5.47898e-06
966,0.00051179,-0.00295489,0.000724712,0.00308723,0.124615,0.124615,0.124615,0.124615,0.124615,0.124615,0.124615,0.124615,0.124615,-0.874615,0.283105,0.730746,1.17435,-0.00295489,0.000724712,0.00308723,-0.00108478,-0.000755206,0.000217922,0.00243439,0.000763808,0.00557113,0.124615,-2.84165e-05,-0.0039211,0.000460036,-0.00294449,0.000749317,-0.000152886,0.011849,0.00612667,-0.00144331,0.000200891,-0.00114964,-0.000666967,0.00201889,0.000648815,-0.0142692,-0.00108478,-0.000755206,0.000217922,0.00243439,0.000763808,0.00557113,0,0,0,0,0,0,0,0,0,-0.000636213,-1.26019e-05,0.000141122,-0.000248131,-0.000337565,-0.000144073,-2.08059e-06,1.46206e-05,0.000313565,0.000248781,-1.84789e-05,2.40638e-05
967,0.00051179,0.00889573,-0.00124405,-0.000364058,0.0737107,0.0737107,0.0737107,0.0737107,0.0737107,0.0737107,0.0737107,0.0737107,0.0737107,-0.926289,-0.763378,0.343746,1.24857,0.00889573,-0.00124405,-0.000364058,-0.00181578,2.43261e-05,0.00329755,0.00513959,0.006144,-0.000299678,0.0737107,0.0463727,-0.311206,0.0175477,-0.07651,-0.0400319,-0.0322586,0.0326379,0.342342,-0.00788166,-0.0188089,-0.0151452,0.0650973,0.096563,0.0239883,-0.0973711,-0.00181578,2.43261e-05,0.00329755,0.00513959,0.006144,-0.000299678,0,0,0,0,0,0,0,0,0,-0.000337206,0.000147204,-0.000635736,-0.000460414,-0.00034439,0.000811456,-8.92912e-05,-0.000127421,0.000300348,0.000170804,3.74092e-05,4.28622e-05
968,0.00051179,-0.00598223,0.00104489,-0.00967292,0.0229843,0.0229843,0.0229843,0.0229843,0.0229843,0.0229843,0.0229843,0.0229843,0.0229843,-0.839983,0.0577287,-0.977016,1.28975,-0.00598223,0.00104489,-0.00967292,-0.00637594,-0.000412729,0.00106404,0.000946386,-0.000734113,0.000208243,0.0229843,0.00156428,-0.00579311,-0.000147067,0.00168012,-1.10477e-05,0.000653002,0.00104745,0.0117864,-0.000605451,0.000274838,-1.53631e-05,0.000214891,-0.00299985,-0.000963386,0.00841058,-0.00637594,-0.000412729,0.00106404,0.000946386,-0.000734113,0.000208243,0,0,0,0,0,0,0,0,0,-0.000284798,-1.80285e-05,-2.8503e-05,-0.000340649,-0.0003052,2.2905e-05,7.73453e-06,1.86266e-05,0.000358902,0.00035782,-2.61213e-05,2.25414e-06
969,0.00051179,-0.0794926,-0.0620908,-0.030057,0.0380663,0.0380663,0.0380663,0.0380663,0.0380663,0.0380663,0.0380663,0.0380663,0.0380663,-0.788066,0.885217,-0.0312506,1.18559,-0.0794926,-0.0620908,-0.030057,0.0360348,-0.0022634,-0.067976,-0.0253443,-0.032784,-0.0193672,0.0380663,-0.753034,-7.8014,0.109723,1.05799,-0.0813591,1.11442,6.9474,7.96225,0.00114874,0.213823,-0.142672,0.469389,-1.20972,0.237087,-7.38673,0.0360348,-0.0022634,-0.067976,-0.0253443,-0.032784,-0.0193672,0,0,0,0,0,0,0,0,0,-0.000901118,-0.00298099,-2.8791e-08,0.00924551,-0.000168258,0.00107463,0.000483032,-0.00396586,0.000687391,0.00121897,0.0022113,0.00169261
970,0.00051179,0.00837393,0.00748962,0.00383677,0.0347879,0.0347879,0.0347879,0.0347879,0.0347879,0.0347879,0.0347879,0.0347879,0.0347879,-0.965212,0.327478,0.668754,1.21906,0.00837393,0.00748962,0.00383677,0.000167155,-0.000233263,-0.0017351,0.00831755,-0.00338773,0.00136783,0.0347879,0.00223328,-0.0307781,-0.000313453,0.0112999,0.000101055,-0.00336616,0.0319997,0.0223031,0.00610383,-0.00603753,-0.00075026,-0.00251811,-0.012752,0.00515075,-0.0333184,0.000167155,-0.000233263,-0.0017351,0.00831755,-0.00338773,0.00136783,0,0,0,0,0,0,0,0,0,-0.000612319,-1.4929e-05,0.000172439,-0.000245007,-0.000323171,-0.000177906,4.51757e-05,-2.5048e-06,0.000290431,0.000193995,-3.88751e-05,5.66166e-06
971,0.00051179,0.00648823,0.0352659,0.00850713,0.0200895,0.0200895,0.0200895,0.0200895,0.0200895,0.0200895,0.0200895,0.0200895,0.0200895,-0.77009,-0.0637118,-0.143028,0.785846,0.00648823,0.0352659,0.00850713,-0.0206738,0.0189813,0.0687852,0.0453036,0.0207875,0.011651,0.0200895,-0.183724,0.735323,0.0281998,-0.297785,-0.607748,-0.12542,-1.26918,-0.134063,-0.24848,-0.0389143,0.0113115,-0.460988,0.301434,-0.127236,1.72166,-0.0206738,0.0189813,0.0687852,0.0453036,0.0207875,0.011651,0,0,0,0,0,0,0,0,0,-0.000662871,-0.000418342,0.000331988,-0.000909886,-0.000308776,0.000139823,-0.000412237,0.000229189,0.00036148,0.000343534,9.18015e-05,2.57187e-05
972,0.00051179,-0.0493813,0.0223176,-0.0381125,0.0406823,0.0406823,0.0406823,0.0406823,0.0406823,0.0406823,0.0406823,0.0406823,0.0406823,-0.790682,-0.842459,-0.0789827,1.15808,-0.0493813,0.0223176,-0.0381125,0.0200699,-0.00415248,0.0116266,-0.0484125,-0.00606187,-0.0240687,0.0406823,-1.50917,-17.7087,-0.254148,-2.55727,0.653565,0.39353,-1.01011,17.1045,-0.0590077,-0.556715,0.0239011,0.15456,3.09167,0.355416,0.893659,0.0200699,-0.00415248,0.0116266,-0.0484125,-0.00606187,-0.0240687,0,0,0,0,0,0,0,0,0,-0.00120587,-0.00598569,-0.000430909,0.00419316,-0.000595355,-0.0021521,0.000922716,0.00166615,0.00052768,-0.000141596,-0.00148776,0.00311655
973,0.00051179,0.00369046,-0.000120153,-0.00750615,0.0942958,0.0942958,0.0942958,0.0942958,0.0942958,0.0942958,0.0942958,0.0942958,0.0942958,-0.877549,-0.822714,-0.905704,1.50574,0.00369046,-0.000120153,-0.00750615,-0.00144071,0.0022534,0.00284146,-0.00450799,0.000512332,0.00117336,0.0942958,0.00111766,-0.00717978,-0.000749581,0.00319482,-0.000396313,0.000849761,-0.00144761,0.00388563,-0.00106104,-0.00188807,-0.00015426,0.00121135,-0.0011866,-0.000780497,0.00774241,-0.00144071,0.0022534,0.00284146,-0.00450799,0.000512332,0.00117336,0,0,0,0,0,0,0,0,0,-0.000456773,4.73001e-06,0.000299133,-0.000466104,-0.000290805,-0.000284095,-2.14999e-05,-0.000122462,0.000309236,0.000503016,0.000126043,8.30958e-06
974,0.00051179,0.0541106,-0.00983456,-0.0291964,0.0510418,0.0510418,0.0510418,0.0510418,0.0510418,0.0510418,0.0510418,0.0510418,0.0510418,-0.948958,-0.846439,0.187588,1.28537,0.0541106,-0.00983456,-0.0291964,-0.00309908,-0.00653996,0.0177427,-0.000451967,0.0286719,1.61529e-05,0.0510418,0.235993,1.48547,0.075944,0.117994,0.0500806,0.0493758,-1.03203,-1.58966,0.0114236,0.118902,-0.0180985,0.0526778,-0.227062,-0.0573739,1.00855,-0.00309908,-0.00653996,0.0177427,-0.000451967,0.0286719,1.61529e-05,0,0,0,0,0,0,0,0,0,-0.000250198,0.00094927,-0.000721275,0.000278649,-0.000339204,0.00141531,-0.000160344,-4.78262e-05,0.000318728,0.000392536,0.00015356,-0.00050199
975,0.00051179,-0.0289705,-0.013963,-0.0111158,0.00773799,0.00773799,0.00773799,0.00773799,0.00773799,0.00773799,0.00773799,0.00773799,0.00773799,-0.992262,-0.623746,-0.528686,1.28575,-0.0289705,-0.013963,-0.0111158,-0.00621,-0.00104241,-0.00551814,-0.00518418,0.0113999,0.0223226,0.00773799,-0.0133766,0.161273,-0.00357246,0.0139909,0.0117603,-0.0134612,0.0891614,-0.144063,-0.00707491,-0.0223488,-0.00492478,0.0157963,0.0223208,-0.00775283,-0.093842,-0.00621,-0.00104241,-0.00551814,-0.00518418,0.0113999,0.0223226,0,0,0,0,0,0,0,0,0,-0.000545479,-7.79992e-05,0.000429414,-0.00036222,-0.000286901,-0.000475562,-4.13617e-05,-9.1959e-05,0.000299059,0.000172426,0.00015671,9.27827e-05
976,0.00051179,0.0568401,0.00432441,0.000701904,0.0312063,0.0312063,0.0312063,0.0312063,0.0312063,0.0312063,0.0312063,0.0312063,0.0312063,-0.781206,0.667402,0.240725,1.0553,0.0568401,0.00432441,0.000701904,0.0193973,-0.0139434,-0.0431604,-0.0126917,-0.00343136,0.0218409,0.0312063,0.0204984,-1.47861,-0.00783115,0.329407,-0.0480739,-0.0526815,2.52761,1.46984,-0.0518682,0.00713176,0.0325175,0.3044,-0.340863,0.152573,-2.83271,0.0193973,-0.0139434,-0.0431604,-0.0126917,-0.00343136,0.0218409,0,0,0,0,0,0,0,0,0,-0.000249557,2.66902e-05,0.000426876,-0.00218476,-0.000426436,-0.000644621,-0.000495588,0.000122181,0.000278652,0.00122634,0.00016868,0.000699283
977,0.00051179,-9.45328e-05,0.00790411,-0.0116864,0.0106628,0.0106628,0.0106628,0.0106628,0.0106628,0.0106628,0.0106628,0.0106628,0.0106628,-0.760663,0.0341264,0.675346,1.01777,-9.45328e-05,0.00790411,-0.0116864,0.0049118,-0.000451507,0.00664213,-0.00884221,0.00109023,0.0058144,0.0106628,0.000125244,6.92098e-06,0.000323422,-0.00715327,0.000403179,0.000407685,0.017475,-0.000315567,-0.00477754,0.000857325,-0.000866446,-0.000935038,-0.00160817,0.000962254,-0.00485358,0.0049118,-0.000451507,0.00664213,-0.00884221,0.00109023,0.0058144,0,0,0,0,0,0,0,0,0,-0.000643931,2.72691e-05,1.43619e-05,-0.000203845,-0.000340873,-1.56427e-05,-6.60148e-05,1.48593e-05,0.000340827,0.000274343,-1.26215e-05,3.59672e-05
978,0.00051179,-0.00169058,0.0041823,-0.00704419,0.06265,0.06265,0.06265,0.06265,0.06265,0.06265,0.06265,0.06265,0.06265,-0.81265,0.610673,-0.738933,1.25672,-0.00169058,0.0041823,-0.00704419,-0.0080277,-0.000213608,-0.000588905,0.00210277,0.00584728,-0.00241244,0.06265,0.000588372,0.00621994,-0.000650339,0.00577199,0.000257516,-0.000311833,0.00485773,-0.00478688,0.00250731,-0.00400317,-0.000915026,0.0011194,-0.00595112,0.00104651,0.00106705,-0.0080277,-0.000213608,-0.000588905,0.00210277,0.00584728,-0.00241244,0,0,0,0,0,0,0,0,0,-0.000459701,-3.2356e-05,-0.000307235,-0.000433937,-0.000275934,0.000298595,2.7891e-05,0.000118509,0.00034105,0.00042493,-6.91867e-05,-1.98908e-06
979,0.00051179,0.00245501,-0.00264894,-0.00182401,0.0813596,0.0813596,0.0813596,0.0813596,0.0813596,0.0813596,0.0813596,0.0813596,0.0813596,-0.83136,0.0302062,0.590356,1.02009,0.00245501,-0.00264894,-0.00182401,-0.0026032,-0.00155037,-0.000443356,-0.000749758,-0.000295796,0.00382246,0.0813596,0.00104447,-0.0163433,0.000131674,0.0080368,0.000130614,-0.000869047,0.0201871,0.0137576,-0.00452109,-0.00148612,-0.000738343,-0.000837845,-0.00390173,0.00233665,-0.0175253,-0.0026032,-0.00155037,-0.000443356,-0.000749758,-0.000295796,0.00382246,0,0,0,0,0,0,0,0,0,-0.000627443,-7.02004e-06,1.92102e-05,-0.000206551,-0.00033986,-3.33972e-05,-2.55806e-05,1.40647e-05,0.000322565,0.000193427,-2.44061e-05,3.15692e-05
980,0.00051179,0.00101823,0.00101629,0.00194488,0.115842,0.115842,0.115842,0.115842,0.115842,0.115842,0.115842,0.115842,0.115842,-0.884158,0.0586847,0.687478,1.12152,0.00101823,0.00101629,0.00194488,-0.00432302,-0.000350423,0.00039221,0.0031455,-0.000491986,0.00375457,0.115842,0.000623599,-0.0105563,0.000197478,0.000349847,0.0005398,-0.000908066,0.0205908,0.00899828,-0.00157781,0.000100196,-0.000914827,-0.00115574,-0.00146633,0.00203943,-0.02138,-0.00432302,-0.000350423,0.00039221,0.0031455,-0.000491986,0.00375457,0,0,0,0,0,0,0,0,0,-0.000645973,-2.27228e-05,3.02217e-05,-0.000210975,-0.000337297,-3.17512e-05,3.61273e-06,9.45903e-06,0.000314467,0.000205816,-2.35272e-05,2.47443e-05
981,0.00051179,0.00135882,0.00346083,-0.00378597,0.0916609,0.0916609,0.0916609,0.0916609,0.0916609,0.0916609,0.0916609,0.0916609,0.0916609,-0.857915,0.908339,-0.721476,1.44278,0.00135882,0.00346083,-0.00378597,-0.00267066,-0.00383238,-0.000621606,0.00096446,-0.00160465,0.000738248,0.0916609,0.00131376,0.00227975,-0.000898592,0.00128502,0.000580663,0.000733029,-0.00652344,-0.00421923,-0.000443952,-0.00569189,0.000294388,0.00304262,0.000946044,0.00155273,0.00726679,-0.00267066,-0.00383238,-0.000621606,0.00096446,-0.00160465,0.000738248,0,0,0,0,0,0,0,0,0,-0.000572659,-8.46286e-06,-0.0003813,-0.000600415,-0.000285501,0.000333991,9.24163e-07,0.000132167,0.000286192,0.00060153,-0.000145269,9.77653e-06
982,0.00051179,0.0152735,-0.000877553,0.00133553,0.019952,0.019952,0.019952,0.019952,0.019952,0.019952,0.019952,0.019952,0.019952,-0.956011,-0.980048,-0.885662,1.6306,0.0152735,-0.000877553,0.00133553,-0.00521438,-0.0005525,0.00288257,-0.000229776,-0.00218959,0.00162315,0.019952,0.00291319,-0.0202891,-0.000664227,0.000955752,-0.0038709,0.000305202,0.00201862,0.00888642,-0.000420855,-0.00213072,-0.000101068,-0.00559226,0.00205252,-0.00139545,0.0022381,-0.00521438,-0.0005525,0.00288257,-0.000229776,-0.00218959,0.00162315,0,0,0,0,0,0,0,0,0,-0.000513844,-8.36274e-06,0.000296274,-0.000540714,-0.000268424,-0.000308442,-1.0994e-07,-9.33602e-05,0.000249617,0.000572591,7.04536e-05,4.28172e-06
983,0.00051179,-0.000330216,-0.00350461,0.00661295,0.0758954,0.0758954,0.0758954,0.0758954,0.0758954,0.0758954,0.0758954,0.0758954,0.0758954,-0.825895,0.0900776,0.819137,1.16671,-0.000330216,-0.00350461,0.00661295,0.001565,-0.00144055,-0.000361979,-0.00267588,0.0011266,0.00723338,0.0758954,0.000362948,-0.00227862,0.000158258,-0.000541603,0.000288542,0.000214648,0.001628,0.0023203,-0.000670122,-0.000476323,-0.000728119,-0.000640476,0.00452254,-7.7635e-06,-0.00760048,0.001565,-0.00144055,-0.000361979,-0.00267588,0.0011266,0.00723338,0,0,0,0,0,0,0,0,0,-0.000674717,2.9387e-06,3.55749e-05,-0.000236259,-0.000338877,-4.83978e-05,-2.3431e-05,1.83638e-05,0.000330083,0.000234785,-1.4379e-05,2.9427e-05
984,0.00051179,0.00959373,0.00377285,-0.0144665,0.0354914,0.0354914,0.0354914,0.0354914,0.0354914,0.0354914,0.0354914,0.0354914,0.0354914,-0.964509,0.0363299,0.0797218,0.968479,0.00959373,0.00377285,-0.0144665,0.00361728,-0.0032218,-0.00915263,0.000282064,0.00461228,0.0263799,0.0354914,0.0784342,0.423654,0.014721,0.0375001,0.127675,0.0622809,0.0688213,-0.560922,0.0738478,0.00679078,-0.00574044,0.138754,-0.0480638,-0.0437766,-0.193109,0.00361728,-0.0032218,-0.00915263,0.000282064,0.00461228,0.0263799,0,0,0,0,0,0,0,0,0,-0.000533246,0.000250121,2.25397e-05,0.000167014,-0.000340903,9.24527e-05,0.000210513,-1.67173e-05,0.000345036,0.000364269,5.43567e-06,-0.00024712
985,0.00051179,0.0486946,0.153522,0.0271215,0.0195952,0.0195952,0.0195952,0.0195952,0.0195952,0.0195952,0.0195952,0.0195952,0.0195952,-0.702304,0.980405,0.0563643,1.20731,0.0486946,0.153522,0.0271215,-0.0193288,-0.16273,0.335943,0.0948796,0.0176255,-0.121998,0.0195952,2.64786,20.8009,-0.132622,-0.515107,5.94442,1.46905,-2.20514,-26.794,0.0138593,-0.785263,-0.032332,1.36704,1.14685,0.0287021,0.81098,-0.0193288,-0.16273,0.335943,0.0948796,0.0176255,-0.121998,0,0,0,0,0,0,0,0,0,0.000667408,0.0100919,0.00419174,0.0168561,-0.00101417,-0.00714525,-0.00250704,-0.01111,0.0012605,0.00119379,0.0109629,-0.00351721
986,0.00051179,0.0234613,-0.00334517,-0.027429,0.053221,0.053221,0.053221,0.053221,0.053221,0.053221,0.053221,0.053221,0.053221,-0.946779,-0.869306,0.336235,1.32858,0.0234613,-0.00334517,-0.027429,-0.00775351,-0.00256322,-0.00349176,0.00192513,0.0133383,-0.00269694,0.053221,0.0259647,-0.0455543,0.0206361,-0.0688422,0.0498104,-0.00166825,-0.0155398,-0.0277174,-0.00109826,-0.0262693,-0.0163497,-0.0357949,0.0984566,0.00390757,0.0787638,-0.00775351,-0.00256322,-0.00349176,0.00192513,0.0133383,-0.00269694,0,0,0,0,0,0,0,0,0,-0.000260271,6.76921e-05,-0.000800304,-0.000483397,-0.000356043,0.000981033,-1.92295e-05,-0.000171956,0.000285342,0.000431797,0.000141842,-1.73107e-05
987,0.00051179,-0.00258521,-0.00187101,-0.00512033,0.0497497,0.0497497,0.0497497,0.0497497,0.0497497,0.0497497,0.0497497,0.0497497,0.0497497,-0.79975,0.01308,0.512424,0.949921,-0.00258521,-0.00187101,-0.00512033,0.00089419,-0.00132053,0.00269937,-0.000175655,-0.000287598,-0.00148819,0.0497497,0.000720039,-0.0230657,0.000205465,0.0095266,0.000363373,-0.00164959,0.0305418,0.0252876,-0.00944518,-0.00609161,-0.000624601,-0.00111316,-0.00156397,0.00268291,-0.0243083,0.00089419,-0.00132053,0.00269937,-0.000175655,-0.000287598,-0.00148819,0,0,0,0,0,0,0,0,0,-0.000611015,1.5931e-05,1.28362e-05,-0.000225213,-0.00034144,-2.39869e-05,-4.02443e-05,1.54226e-05,0.000327639,0.000235711,-2.45446e-05,1.38335e-05
988,0.00051179,0.0169235,0.000276392,-0.00377866,0.0078494,0.0078494,0.0078494,0.0078494,0.0078494,0.0078494,0.0078494,0.0078494,0.0078494,-0.757849,-0.67173,0.853563,1.32443,0.0169235,0.000276392,-0.00377866,0.00385858,-0.00440964,-0.0074254,-0.00433803,-0.00752308,0.00807843,0.0078494,0.000266746,-0.016366,-0.000105195,-0.00229374,-0.00029806,0.000467055,0.00330929,-0.000259435,-0.00050758,-0.000985687,-0.000641908,0.000124026,0.00300303,-0.000807032,0.000345337,0.00385858,-0.00440964,-0.0074254,-0.00433803,-0.00752308,0.00807843,0,0,0,0,0,0,0,0,0,-0.000568427,1.30676e-05,-0.000297146,-0.000366863,-0.00030216,0.000251997,-3.1787e-05,-4.51141e-05,0.000373393,0.00029728,-3.65358e-05,2.8798e-05
989,0.00051179,0.00657654,-0.0226862,-0.00324011,0.0631763,0.0631763,0.0631763,0.0631763,0.0631763,0.0631763,0.0631763,0.0631763,0.0631763,-0.66814,-0.353746,0.0368237,0.756904,0.00657654,-0.0226862,-0.00324011,0.0451855,-0.00248785,0.00942326,0.00151947,0.01887,-0.0131848,0.0631763,1.05774,3.31089,-0.460327,-3.07783,0.506119,0.0119698,-5.04174,-3.82359,0.401357,-0.433365,-0.333492,0.512115,3.53388,0.173753,4.53286,0.0451855,-0.00248785,0.00942326,0.00151947,0.01887,-0.0131848,0,0,0,0,0,0,0,0,0,-1.3873e-05,0.00359191,-0.00236121,0.0142863,-0.000597918,-0.00226694,9.16423e-05,-0.00606402,-0.000333972,-0.0140724,0.0029178,-0.0011199
990,0.00051179,-0.00840444,-0.00134237,-0.0263752,0.000185516,0.000185516,0.000185516,0.000185516,0.000185516,0.000185516,0.000185516,0.000185516,0.000185516,-0.999815,-0.438361,-0.706033,1.3001,-0.00840444,-0.00134237,-0.0263752,-0.00379527,0.00405452,0.00054197,-0.0171947,0.00456489,0.00725314,0.000185516,-0.00391798,0.0421084,-0.00322067,0.0169555,-0.00151889,-0.00296178,0.03175,-0.0321851,0.000421731,0.00441312,-0.00251474,-0.00428249,-0.0200262,-0.00256299,-0.00109238,-0.00379527,0.00405452,0.00054197,-0.0171947,0.00456489,0.00725314,0,0,0,0,0,0,0,0,0,-0.000421621,-1.57246e-05,0.000258853,-0.00033481,-0.000284309,-0.000250515,-6.10234e-05,-4.42183e-05,0.000303954,0.000310612,6.47198e-05,4.62924e-05
991,0.00051179,-0.0108847,0.000698938,0.00504099,0.00231379,0.00231379,0.00231379,0.00231379,0.00231379,0.00231379,0.00231379,0.00231379,0.00231379,-0.978459,-0.562788,-0.997686,1.50648,-0.0108847,0.000698938,0.00504099,-0.00650046,-0.00239065,0.00296783,-0.0156906,0.00283898,0.00341757,0.00231379,0.00361468,-0.0148575,-0.000455581,0.00252355,0.000769785,-2.6349e-05,0.000297022,0.0249724,-0.00140438,-0.00248517,0.000137588,9.71234e-05,-0.000737315,-0.00182494,-0.00543514,-0.00650046,-0.00239065,0.00296783,-0.0156906,0.00283898,0.00341757,0,0,0,0,0,0,0,0,0,-0.000347294,6.7881e-06,0.000222352,-0.000395315,-0.000265831,-0.000250814,-6.42577e-05,-7.42178e-05,0.000292614,0.00042473,0.000103984,2.91802e-05
992,0.00051179,0.00211266,-0.00122481,-0.0042698,0.0573903,0.0573903,0.0573903,0.0573903,0.0573903,0.0573903,0.0573903,0.0573903,0.0573903,-0.80739,0.787165,0.794486,1.37939,0.00211266,-0.00122481,-0.0042698,0.00486328,-0.00232409,-0.000889268,0.00226814,0.00569238,0.00587067,0.0573903,0.000284448,-0.00152338,0.000372894,-0.00229674,0.000381153,0.000393897,0.00142917,-0.00097044,-0.000616657,0.00212076,-0.000812015,0.000948113,0.00140079,-0.000903014,0.00189251,0.00486328,-0.00232409,-0.000889268,0.00226814,0.00569238,0.00587067,0,0,0,0,0,0,0,0,0,-0.000536069,1.21615e-05,0.000296182,-0.000432739,-0.000357861,-0.000315694,-5.31975e-06,7.1458e-05,0.000328541,0.000427785,-2.26543e-05,1.12611e-05
993,0.00051179,0.0284538,-0.0205828,0.000559568,0.0993176,0.0993176,0.0993176,0.0993176,0.0993176,0.0993176,0.0993176,0.0993176,0.0993176,-0.900682,-0.603924,0.0408877,1.08518,0.0284538,-0.0205828,0.000559568,0.00938006,-0.0116604,0.00147464,0.00203292,-0.00671962,-0.0038631,0.0993176,0.383384,2.73486,0.0180839,-0.213638,-0.260718,0.322735,2.27703,-2.50259,0.0425193,0.127916,-0.00397423,-0.450238,0.106305,-0.0877108,-1.82735,0.00938006,-0.0116604,0.00147464,0.00203292,-0.00671962,-0.0038631,0,0,0,0,0,0,0,0,0,-0.000440143,0.00156489,-0.000157981,0.00302298,-0.000375563,0.000222216,-0.000176173,-8.04139e-05,0.000483871,0.000219116,-2.65246e-05,-0.000856803
994,0.00051179,-0.00060674,-0.000927838,0.00345889,0.0823985,0.0823985,0.0823985,0.0823985,0.0823985,0.0823985,0.0823985,0.0823985,0.0823985,-0.917601,-0.0735654,0.849473,1.2526,-0.00060674,-0.000927838,0.00345889,-0.00435381,-0.00139448,-0.00119816,0.0054031,-0.000833856,0.00376525,0.0823985,0.00106086,-0.00629695,0.00025142,-0.0042145,0.000345738,-0.000190839,0.00890705,0.00655795,7.44294e-05,0.000494294,-0.000418724,-0.000408055,0.00464805,-0.000313625,-0.0119579,-0.00435381,-0.00139448,-0.00119816,0.0054031,-0.000833856,0.00376525,0,0,0,0,0,0,0,0,0,-0.000679918,-2.29681e-05,-5.0286e-05,-0.000239679,-0.000337208,3.88554e-05,2.08843e-05,1.5051e-05,0.000313602,0.000225789,-2.75768e-05,1.07548e-05
995,0.00051179,0.012363,0.00171035,-0.0116045,0.0963601,0.0963601,0.0963601,0.0963601,0.0963601,0.0963601,0.0963601,0.0963601,0.0963601,-0.90364,-0.115369,0.441761,1.01244,0.012363,0.00171035,-0.0116045,-0.000899754,9.96729e-05,0.000403462,0.00301072,0.00118327,0.00313391,0.0963601,0.00724478,-0.0942728,-0.000514977,-0.0101431,0.00317446,-0.0107466,0.0837364,0.0787354,0.0178096,0.0138499,0.00301774,-0.0107255,-0.00541712,0.0127478,-0.0614064,-0.000899754,9.96729e-05,0.000403462,0.00301072,0.00118327,0.00313391,0,0,0,0,0,0,0,0,0,-0.000588007,-1.79445e-05,-8.58157e-05,-0.000268761,-0.000349456,8.16627e-05,5.44317e-05,6.50026e-05,0.000309415,0.00016533,-2.29925e-05,2.97391e-05
996,0.00051179,0.0021781,0.00589816,0.00182232,0.0282044,0.0282044,0.0282044,0.0282044,0.0282044,0.0282044,0.0282044,0.0282044,0.0282044,-0.778204,0.488845,0.642541,1.12135,0.0021781,0.00589816,0.00182232,0.000441673,0.00360195,-0.000269756,-0.0118566,0.00850858,0.00612415,0.0282044,2.2307e-05,-0.00593779,0.000415392,-0.00584107,0.000102927,0.00037948,0.00809061,0.00365676,-0.0047812,0.00282979,-0.00111755,0.000781826,-0.00288689,8.80733e-05,-0.0106948,0.000441673,0.00360195,-0.000269756,-0.0118566,0.00850858,0.00612415,0,0,0,0,0,0,0,0,0,-0.00057032,1.3814e-05,0.000276368,-0.000279996,-0.000367964,-0.000236195,-7.16949e-05,7.03931e-05,0.000334322,0.000281093,3.51714e-06,4.25553e-05
997,0.00051179,-0.00805216,0.0122412,0.0156254,0.0332382,0.0332382,0.0332382,0.0332382,0.0332382,0.0332382,0.0332382,0.0332382,0.0332382,-0.783238,0.58436,0.510475,1.10251,-0.00805216,0.0122412,0.0156254,0.00439145,0.00120034,0.00182411,-0.00956317,0.00906493,0.00477612,0.0332382,0.000486985,-0.0118243,-0.000437312,0.0072083,-0.00125195,-0.00133867,0.047848,0.0211284,-0.0133003,0.0118614,0.000934224,0.00587664,-0.031311,0.00449527,-0.0693501,0.00439145,0.00120034,0.00182411,-0.00956317,0.00906493,0.00477612,0,0,0,0,0,0,0,0,0,-0.000496238,3.44464e-05,0.000385284,-0.00037842,-0.000384564,-0.000377654,-0.000104263,7.63624e-05,0.000327654,0.000383274,2.36292e-05,5.64112e-05
998,0.00051179,-0.0804987,0.0746226,0.137731,0.0270957,0.0270957,0.0270957,0.0270957,0.0270957,0.0270957,0.0270957,0.0270957,0.0270957,-0.777096,0.618321,0.116424,0.999877,-0.0804987,0.0746226,0.137731,-0.0596125,0.0246393,0.112408,0.101405,-0.0477652,-0.0446431,0.0270957,1.86056,14.3525,0.0326254,-0.453821,-1.50762,-0.599845,-13.2877,-12.7644,0.260424,-0.695172,-0.0251057,0.617553,1.07437,0.294639,12.5324,-0.0596125,0.0246393,0.112408,0.101405,-0.0477652,-0.0446431,0,0,0,0,0,0,0,0,0,0.000252791,0.00622076,0.000518728,-0.00226181,-0.000340933,5.39201e-05,-0.00097482,-0.00086727,0.000182755,-0.00261256,0.000138561,-0.00153399
999,0.00051179,-0.00109578,8.48984e-05,-0.00114937,0.0791671,0.0791671,0.0791671,0.0791671,0.0791671,0.0791671,0.0791671,0.0791671,0.0791671,-0.920833,-0.193393,-0.870083,1.28155,-0.00109578,8.48984e-05,-0.00114937,-0.00660127,0.00126915,0.00286901,-0.00742012,-0.00209436,-0.00137467,0.0791671,-1.6436e-05,0.00769192,-0.00103443,0.00586866,-0.000150352,0.00102799,-0.00166206,-0.00644579,-0.00163277,0.000619225,-0.000309325,-0.000384315,-0.00657278,-0.0013439,0.00319574,-0.00660127,0.00126915,0.00286901,-0.00742012,-0.00209436,-0.00137467,0,0,0,0,0,0,0,0,0,-0.000325821,-1.18703e-05,0.000107122,-0.000302766,-0.000299627,-0.000104775,-2.40462e-05,-2.80862e-05,0.000334457,0.000341736,4.04931e-06,7.6254e-06
1000,0.00051179,4.00543e-05,-0.0112789,0.0572815,0.0297914,0.0297914,0.0297914,0.0297914,0.0297914,0.0297914,0.0297914,0.0297914,0.0297914,-0.779791,-0.490391,0.211699,0.945185,4.00543e-05,-0.0112789,0.0572815,-0.0159254,-0.0107822,-0.0730029,0.0168684,0.0474702,0.0164013,0.0297914,0.0601595,-3.57379,-0.000556223,0.248635,-0.0760474,-0.110787,4.43165,3.64979,-0.0386,0.251044,0.0220952,0.259706,-0.4884,0.237766,-4.74864,-0.0159254,-0.0107822,-0.0730029,0.0168684,0.0474702,0.0164013,0,0,0,0,0,0,0,0,0,-0.000272833,-9.80641e-05,-0.000662039,-0.00292658,-0.000344241,0.000548655,-0.000427892,0.000603334,0.000285722,0.00108868,9.23196e-05,0.000951602
1001,0.00051179,0.00909942,0.00734991,-0.0229197,0.100059,0.100059,0.100059,0.100059,0.100059,0.100059,0.100059,0.100059,0.100059,-0.850059,0.5711,0.347685,1.0815,0.00909942,0.00734991,-0.0229197,-0.00220604,-0.00339318,-0.00552706,-0.00143797,-0.00112594,0.0175355,0.100059,0.0189639,-0.478815,-0.00080692,-0.0242458,-0.0452787,-0.0360384,0.434833,0.514995,-0.0209925,-0.0728743,-0.00390726,0.106537,0.0897702,0.0459157,-0.51845,-0.00220604,-0.00339318,-0.00552706,-0.00143797,-0.00112594,0.0175355,0,0,0,0,0,0,0,0,0,-0.000428356,1.71217e-05,0.000428008,-0.000662813,-0.000355745,-0.000470009,-0.00017882,-4.49649e-05,0.000279531,0.000247158,-5.36703e-06,0.000250588
1002,0.00051179,0.00446235,0.00519991,0.0080006,0.111243,0.111243,0.111243,0.111243,0.111243,0.111243,0.111243,0.111243,0.111243,-0.888757,-0.722737,0.461688,1.23507,0.00446235,0.00519991,0.0080006,0.000360155,0.000594504,0.000332823,-0.00169656,-0.00353588,0.00599986,0.111243,0.00620998,-0.0688848,0.00304598,-0.0403226,-0.0115066,-0.00782131,0.0765884,0.0759291,-0.0021516,-0.00550742,-0.004517,0.0226949,0.0406301,0.0108517,-0.107284,0.000360155,0.000594504,0.000332823,-0.00169656,-0.00353588,0.00599986,0,0,0,0,0,0,0,0,0,-0.000406064,1.02659e-05,-0.000526459,-0.000381109,-0.0003339,0.000562864,-4.18256e-05,-8.47665e-05,0.00031805,0.000306225,4.23763e-06,6.16729e-05
1003,0.00051179,-0.000345159,-0.0118262,-0.000332102,0.0837397,0.0837397,0.0837397,0.0837397,0.0837397,0.0837397,0.0837397,0.0837397,0.0837397,-0.83374,0.883839,0.434503,1.29038,-0.000345159,-0.0118262,-0.000332102,-0.000623345,-9.72562e-05,0.000766523,0.00171532,0.0165056,0.00210559,0.0837397,0.000255719,0.0265033,-0.00322359,0.0365435,0.019615,0.00202074,-0.026741,-0.0457731,-0.00824647,0.0603347,0.00628214,-0.0276976,-0.0850519,-0.00238377,0.0547707,-0.000623345,-9.72562e-05,0.000766523,0.00171532,0.0165056,0.00210559,0,0,0,0,0,0,0,0,0,-0.000316612,6.44297e-06,0.00056213,-0.000609847,-0.000392789,-0.000595339,-2.43746e-05,0.000219543,0.000311323,0.00063772,8.3344e-06,6.89019e-06
1004,0.00051179,0.00825143,-0.0151381,-0.0131273,0.0973976,0.0973976,0.0973976,0.0973976,0.0973976,0.0973976,0.0973976,0.0973976,0.0973976,-0.902602,0.892629,-0.165095,1.28013,0.00825143,-0.0151381,-0.0131273,0.0104823,-0.0145723,0.0116118,0.00439958,0.00128295,0.000477433,0.0973976,-0.337903,-2.07606,0.097534,0.438678,-0.255875,0.0665215,-1.79971,2.32368,-0.0124135,0.145998,0.0205086,-0.0331456,-0.569538,0.15076,1.84598,0.0104823,-0.0145723,0.0116118,0.00439958,0.00128295,0.000477433,0,0,0,0,0,0,0,0,0,-0.000932731,-0.00142457,-0.000600042,4.71218e-05,-0.00016644,0.00142966,0.000172465,9.23256e-05,0.000313379,0.000734212,0.00012559,0.000968722
1005,0.00051179,0.01565,-0.0125522,-0.0177276,0.056965,0.056965,0.056965,0.056965,0.056965,0.056965,0.056965,0.056965,0.056965,-0.943035,-0.913379,0.43744,1.38381,0.01565,-0.0125522,-0.0177276,-0.00427174,-0.002965,-0.00898417,-0.00355615,0.0130963,0.00933148,0.056965,-0.00419711,0.0154681,0.00710226,-0.0497092,0.0385516,0.00503631,0.0703511,-0.0696697,0.00231857,-0.00605614,-0.00563838,-0.0426704,0.0683176,-0.00116581,-0.00995304,-0.00427174,-0.002965,-0.00898417,-0.00355615,0.0130963,0.00933148,0,0,0,0,0,0,0,0,0,-0.000278704,-4.05664e-05,-0.000698561,-0.000553171,-0.000364536,0.000739934,-4.41011e-06,-6.23318e-05,0.000282481,0.000513692,0.000136911,4.26062e-05
1006,0.00051179,0.000662331,-0.00703036,-0.00239167,0.0294489,0.0294489,0.0294489,0.0294489,0.0294489,0.0294489,0.0294489,0.0294489,0.0294489,-0.970551,-0.964479,0.946784,1.66391,0.000662331,-0.00703036,-0.00239167,-0.00331002,0.000735341,0.000426929,-0.00150349,0.000713043,0.0037654,0.0294489,0.000756517,0.00794296,-0.000333123,-0.0022848,-0.00120658,-0.000431262,0.00438163,-0.00739871,-0.000378864,0.00580348,0.000646241,-0.00647374,0.00351168,-0.00221807,0.00448379,-0.00331002,0.000735341,0.000426929,-0.00150349,0.000713043,0.0037654,0,0,0,0,0,0,0,0,0,-0.000516899,-9.43459e-06,-0.000303307,-0.000462044,-0.000366384,0.000307329,-6.07887e-06,1.33734e-05,0.00028801,0.000462001,2.19489e-07,1.10696e-05
1007,0.00051179,-0.00141204,-0.00439867,0.00282895,0.0673605,0.0673605,0.0673605,0.0673605,0.0673605,0.0673605,0.0673605,0.0673605,0.0673605,-0.817361,0.333619,0.55161,1.04099,-0.00141204,-0.00439867,0.00282895,0.000102555,-0.00259948,0.00235219,-0.00203308,1.24195e-05,0.00931335,0.0673605,0.000940755,-0.0237666,-9.69097e-05,0.0104413,-0.00146708,-0.00148011,0.0306122,0.0266457,-0.00712882,-0.000317134,-0.000659582,0.00145297,-0.00572546,0.00279741,-0.0348941,0.000102555,-0.00259948,0.00235219,-0.00203308,1.24195e-05,0.00931335,0,0,0,0,0,0,0,0,0,-0.000584275,6.10204e-07,0.000204627,-0.000258843,-0.000352466,-0.00023159,-5.04159e-05,7.7425e-06,0.000319451,0.000267564,-1.42141e-05,5.59475e-05
1008,0.00051179,-0.0108317,-0.0054887,0.00198717,0.1071,0.1071,0.1071,0.1071,0.1071,0.1071,0.1071,0.1071,0.1071,-0.8929,0.600277,0.556735,1.21143,-0.0108317,-0.0054887,0.00198717,-0.0031761,0.000593565,-9.98918e-05,-0.00050965,-0.000402844,0.00616514,0.1071,0.00347812,-0.0476899,-0.00158422,0.0220801,-0.00236329,-0.00525412,0.0613148,0.0608849,-0.00125878,-0.010032,-7.13505e-05,0.00537825,-0.00655938,0.00701592,-0.0686802,-0.0031761,0.000593565,-9.98918e-05,-0.00050965,-0.000402844,0.00616514,0,0,0,0,0,0,0,0,0,-0.000506841,-1.20068e-05,0.000367021,-0.000357359,-0.00033995,-0.000376927,-2.23591e-05,2.38312e-05,0.000294007,0.000303819,-2.85732e-05,5.23884e-05
1009,0.00051179,-0.0132155,0.00796667,0.0255836,0.0969564,0.0969564,0.0969564,0.0969564,0.0969564,0.0969564,0.0969564,0.0969564,0.0969564,-0.903044,-0.701011,-0.0940467,1.14706,-0.0132155,0.00796667,0.0255836,0.0026015,0.00889632,0.00920027,-0.011068,-0.00373042,0.000614017,0.0969564,-0.602537,-5.15415,-0.0573732,-0.0893201,0.581637,0.146476,0.0805983,4.58573,-0.0319271,-0.252786,0.0218021,-0.199747,0.33414,0.150576,0.0935647,0.0026015,0.00889632,0.00920027,-0.011068,-0.00373042,0.000614017,0,0,0,0,0,0,0,0,0,-0.000822492,-0.00243228,7.58504e-05,0.00148091,-0.000393355,-0.000560619,0.000352417,0.000124682,0.000424981,7.58482e-05,5.60353e-05,0.00132334
1010,0.00051179,0.0119328,-0.00629506,0.0395181,0.0730148,0.0730148,0.0730148,0.0730148,0.0730148,0.0730148,0.0730148,0.0730148,0.0730148,-0.926985,-0.368096,-0.0499773,0.998646,0.0119328,-0.00629506,0.0395181,-0.00233401,-0.00210599,-0.00461948,0.000899479,0.00155783,0.00187065,0.0730148,-0.219295,-1.78509,0.0518675,0.401683,0.112423,0.140514,0.999473,1.66073,-0.0384998,0.0211227,-0.073171,-0.0764345,-0.41651,0.051659,-0.962557,-0.00233401,-0.00210599,-0.00461948,0.000899479,0.00155783,0.00187065,0,0,0,0,0,0,0,0,0,-0.000632547,-0.000870797,0.000296203,0.0011818,-0.000340724,0.000201412,4.93437e-05,-0.000457173,0.000447668,0.000177152,-0.000258958,0.000504993
1011,0.00051179,-0.00687844,0.0198097,-0.00469262,0.0757817,0.0757817,0.0757817,0.0757817,0.0757817,0.0757817,0.0757817,0.0757817,0.0757817,-0.924218,-0.669282,0.303842,1.18086,-0.00687844,0.0198097,-0.00469262,0.00117367,0.00353957,0.000220055,0.00330308,0.00638157,0.000257491,0.0757817,0.107174,-0.638344,0.0159339,-0.0641334,-0.111968,-0.0735352,-0.0690835,0.75719,-0.00388463,0.0745236,-0.00629095,0.161759,-0.0301999,0.0400804,-0.0879832,0.00117367,0.00353957,0.000220055,0.00330308,0.00638157,0.000257491,0,0,0,0,0,0,0,0,0,-0.000370719,0.000370849,-0.000521443,-0.000567391,-0.000352317,0.000716177,-0.000173797,-1.82386e-05,0.000300921,-0.00016576,1.91448e-05,3.08001e-05
1012,0.00051179,0.00303784,-0.00347224,0.00506695,0.071592,0.071592,0.071592,0.071592,0.071592,0.071592,0.071592,0.071592,0.071592,-0.833445,0.41058,0.928408,1.31345,0.00303784,-0.00347224,0.00506695,0.000105674,0.000290914,0.000396255,-0.000238989,0.00144921,0.00526502,0.071592,0.00105311,-0.00263788,-0.000243299,-0.00105084,-0.000147507,0.000513721,0.000825838,-0.000252445,-0.00093581,-0.000393084,-0.000303081,-0.000289781,0.00491616,-0.0010156,-0.00560301,0.000105674,0.000290914,0.000396255,-0.000238989,0.00144921,0.00526502,0,0,0,0,0,0,0,0,0,-0.000672296,9.09222e-07,0.000166956,-0.000315317,-0.000340784,-0.00016648,-1.07587e-05,2.56086e-05,0.00032673,0.000324417,-1.41473e-05,1.63624e-05
1013,0.00051179,0.00280168,-0.00357663,0.00124858,0.0977742,0.0977742,0.0977742,0.0977742,0.0977742,0.0977742,0.0977742,0.0977742,0.0977742,-0.902226,0.435008,-0.787252,1.27397,0.00280168,-0.00357663,0.00124858,-0.00153338,-0.00150778,-3.72902e-06,-0.00103137,-0.00113024,0.00107011,0.0977742,-0.000503048,0.00930891,-0.00125416,0.00867494,0.000735324,0.000423532,-0.00699887,-0.0128459,-0.00052111,-0.00125689,-0.000169096,0.00128138,-0.00384141,-0.000588849,0.0044689,-0.00153338,-0.00150778,-3.72902e-06,-0.00103137,-0.00113024,0.00107011,0,0,0,0,0,0,0,0,0,-0.000392921,-6.5964e-06,-0.000216232,-0.000369032,-0.000304842,0.000188613,-4.17663e-06,6.03089e-05,0.000317559,0.00037323,-7.33022e-05,5.99204e-06
1014,0.00051179,0.00402074,-0.0001059,-0.00674667,0.0573073,0.0573073,0.0573073,0.0573073,0.0573073,0.0573073,0.0573073,0.0573073,0.0573073,-0.807307,-0.589647,-0.84632,1.30984,0.00402074,-0.0001059,-0.00674667,-0.00804717,0.00146912,0.000846855,-0.000970782,-0.00414046,-0.00113737,0.0573073,0.000471726,0.00354409,-0.000599645,0.00364742,3.50399e-05,0.000536777,-0.00155784,-0.00759987,-0.000134485,0.00101479,-0.000358562,-0.00028041,-0.00455631,0.000442151,0.00858492,-0.00804717,0.00146912,0.000846855,-0.000970782,-0.00414046,-0.00113737,0,0,0,0,0,0,0,0,0,-0.000414617,-2.70589e-05,0.000276898,-0.000400488,-0.000320787,-0.000268203,5.29205e-06,-0.000102413,0.000364244,0.000414325,5.74224e-05,7.34231e-06
1015,0.00051179,-0.0111871,0.00079897,0.0961943,0.0246884,0.0246884,0.0246884,0.0246884,0.0246884,0.0246884,0.0246884,0.0246884,0.0246884,-0.774688,-0.616158,0.206296,1.01111,-0.0111871,0.00079897,0.0961943,-0.0523746,0.00872879,-0.0979043,-0.00218275,0.0406827,0.0281054,0.0246884,0.0628762,-4.35521,0.011303,-0.281858,-0.10766,-0.118745,5.51258,4.47406,-0.0616123,0.0749243,-0.0240358,0.413102,0.206134,0.280442,-6.02187,-0.0523746,0.00872879,-0.0979043,-0.00218275,0.0406827,0.0281054,0,0,0,0,0,0,0,0,0,-0.000185125,-0.000242016,-0.000456315,-0.00349076,-0.000277365,0.000656633,-0.000613499,0.000255115,0.000283696,0.00132427,-8.8646e-05,0.00124821
1016,0.00051179,0.00760937,-0.00893033,0.0136117,0.0869298,0.0869298,0.0869298,0.0869298,0.0869298,0.0869298,0.0869298,0.0869298,0.0869298,-0.91307,0.762344,0.0906151,1.19293,0.00760937,-0.00893033,0.0136117,-0.00691882,0.0125588,0.0165925,-0.000892967,-0.0071899,-0.00218174,0.0869298,0.539885,4.33421,-0.0805779,-0.287425,-0.341076,0.220406,0.321598,-4.00074,0.035876,-0.306104,-0.0379701,-0.0341608,0.602459,-0.149981,-0.301049,-0.00691882,0.0125588,0.0165925,-0.000892967,-0.0071899,-0.00218174,0,0,0,0,0,0,0,0,0,-0.000327572,0.00218508,0.000177395,0.00193038,-0.000340516,-0.000857586,-0.000304838,-0.000401798,0.000390083,0.000439604,-4.98023e-05,-0.00124057
1017,0.00051179,-0.0101838,-0.0109298,0.0122495,0.121298,0.121298,0.121298,0.121298,0.121298,0.121298,0.121298,0.121298,0.121298,-0.878702,-0.802194,0.145211,1.19863,-0.0101838,-0.0109298,0.0122495,-0.0142309,-0.0156129,0.0166015,-0.00473061,0.000876414,0.00120261,0.121298,0.600296,3.87229,0.116934,0.469006,-0.22899,-0.0118704,-2.48117,-3.63312,0.0253756,0.24133,-0.0190998,0.178275,-0.699406,-0.137841,2.29065,-0.0142309,-0.0156129,0.0166015,-0.00473061,0.000876414,0.00120261,0,0,0,0,0,0,0,0,0,-0.000168197,0.00238793,-0.000212409,0.000147963,-0.000261003,0.00122562,-0.000439165,0.000122865,0.000361219,-0.000100652,-0.000305099,-0.00122558
1018,0.00051179,-0.00987141,-0.00816159,-0.00279173,0.00222051,0.00222051,0.00222051,0.00222051,0.00222051,0.00222051,0.00222051,0.00222051,0.00222051,-0.997779,-0.93574,-0.394312,1.42361,-0.00987141,-0.00816159,-0.00279173,0.00323469,0.00146838,-0.00106813,0.00593344,0.0277402,-0.015378,0.00222051,0.0150736,-0.0712681,-0.0095173,0.0219567,-0.0937311,0.00990209,0.0212674,0.174871,0.000334544,0.0201921,-0.00577917,-0.0678065,-0.0339873,0.00189528,0.0493309,0.00323469,0.00146838,-0.00106813,0.00593344,0.0277402,-0.015378,0,0,0,0,0,0,0,0,0,-0.000798516,7.87413e-05,0.000791282,-0.000688546,-0.000296885,-0.000871771,1.85397e-05,-0.000179447,0.000209667,0.000776885,0.000399057,-8.0214e-05
1019,0.00051179,0.0623398,-0.0225475,0.227563,0.00610471,0.00610471,0.00610471,0.00610471,0.00610471,0.00610471,0.00610471,0.00610471,0.00610471,-0.756105,-0.88158,0.160506,1.17245,0.0623398,-0.0225475,0.227563,0.104452,0.192427,-0.0892774,-0.0331335,-0.219478,-0.0471487,0.00610471,0.200478,-11.1863,0.079936,-2.29926,0.177874,-0.216167,6.33997,10.9461,-0.0135433,-0.109898,-0.137745,-0.341374,2.43171,0.233047,-6.22616,0.104452,0.192427,-0.0892774,-0.0331335,-0.219478,-0.0471487,0,0,0,0,0,0,0,0,0,7.60779e-05,0.00101217,0.000139036,-0.00519163,-2.57734e-05,0.00258459,-0.000745867,-0.0017698,0.0004474,0.00213718,-0.00180243,0.000417009
1020,0.00051179,-0.000163779,0.00216958,3.47365e-05,0.118615,0.118615,0.118615,0.118615,0.118615,0.118615,0.118615,0.118615,0.118615,-0.881385,-0.310453,-0.688285,1.16059,-0.000163779,0.00216958,3.47365e-05,-0.00498757,0.00307796,0.000891879,-0.00204908,-0.00203287,-0.00266824,0.118615,-0.000411376,0.0201017,-0.00179075,0.0134823,-0.00126878,-0.00167363,0.010869,-0.0186691,0.0034581,0.00250231,-0.00210773,-0.00338379,-0.0181542,-0.000529747,-0.00751991,-0.00498757,0.00307796,0.000891879,-0.00204908,-0.00203287,-0.00266824,0,0,0,0,0,0,0,0,0,-0.000400566,-1.8701e-05,0.000183055,-0.000323236,-0.000312114,-0.000170183,1.53388e-05,-6.08077e-05,0.000346005,0.000315418,1.94018e-05,-7.69618e-06
1021,0.00051179,-0.0020372,-0.00120855,0.000244217,0.0481577,0.0481577,0.0481577,0.0481577,0.0481577,0.0481577,0.0481577,0.0481577,0.0481577,-0.951842,-0.422324,-0.866185,1.35449,-0.0020372,-0.00120855,0.000244217,-0.00455429,0.00174035,0.00187239,-0.0100057,0.000631833,0.00081928,0.0481577,-0.000224873,0.00953885,-0.0012131,0.00702157,-0.000237408,0.00103344,0.000605028,-0.00726424,-0.00198531,0.000105037,-0.000257522,-0.00150208,-0.00591806,-0.00187222,0.000652834,-0.00455429,0.00174035,0.00187239,-0.0100057,0.000631833,0.00081928,0,0,0,0,0,0,0,0,0,-0.000363953,-3.3307e-06,0.000212334,-0.000334157,-0.000287587,-0.000207062,-3.93899e-05,-5.48557e-05,0.000316866,0.000363215,5.85988e-05,1.53005e-05
1022,0.00051179,0.00222547,0.00135814,-0.00331927,0.0138745,0.0138745,0.0138745,0.0138745,0.0138745,0.0138745,0.0138745,0.0138745,0.0138745,-0.93783,0.986125,0.752253,1.55494,0.00222547,0.00135814,-0.00331927,0.000999006,-0.00123481,-0.00187598,0.000343925,-0.000556317,0.011154,0.0138745,0.00101586,-0.0071487,0.0004564,-0.00342644,-0.00248846,-2.99998e-05,0.00493653,0.00741168,-0.000531154,0.00215789,-0.000926755,0.00341993,-8.95874e-05,-0.00183715,-0.00503719,0.000999006,-0.00123481,-0.00187598,0.000343925,-0.000556317,0.011154,0,0,0,0,0,0,0,0,0,-0.00045187,-2.78467e-06,0.000322125,-0.000545283,-0.00031873,-0.000329909,-1.37951e-05,2.58592e-05,0.000257865,0.000526224,-4.06899e-05,3.37251e-05
1023,0.00051179,0.00415065,-0.00215451,0.00286941,0.101119,0.101119,0.101119,0.101119,0.101119,0.101119,0.101119,0.101119,0.101119,-0.851119,0.840555,0.445895,1.27662,0.00415065,-0.00215451,0.00286941,-0.00128031,0.00151755,0.000177316,0.000456071,0.0121372,0.00472047,0.101119,0.00153495,-0.00897631,-0.0041961,0.0405269,0.0114152,-0.0014954,0.0310135,-0.00658956,-0.00875034,0.0460581,0.00615212,-0.0110304,-0.0844304,0.00364035,-0.0228525,-0.00128031,0.00151755,0.000177316,0.000456071,0.0121372,0.00472047,0,0,0,0,0,0,0,0,0,-0.00034748,9.02608e-07,0.000547601,-0.000566292,-0.00037902,-0.000574386,-4.18419e-05,0.000175607,0.000300787,0.000553111,7.28604e-06,4.14335e-05
1024,0.00051179,0.00651025,0.0101791,-0.0120598,0.036299,0.036299,0.036299,0.036299,0.036299,0.036299,0.036299,0.036299,0.036299,-0.963701,-0.160732,-0.581568,1.137,0.00651025,0.0101791,-0.0120598,-0.00459796,0.00353721,0.00298946,-0.00870345,0.000321616,-0.000458622,0.036299,-0.00337623,0.0393869,-0.00278818,-0.00113452,-0.000586346,-0.00666069,0.03186,-0.0453108,0.00195782,-0.00197203,-0.00526593,-0.000920167,-0.0070726,-0.00330475,-0.0188801,-0.00459796,0.00353721,0.00298946,-0.00870345,0.000321616,-0.000458622,0,0,0,0,0,0,0,0,0,-0.000413299,-1.85442e-05,8.98603e-05,-0.000323771,-0.000306005,-8.237e-05,-1.24014e-05,-3.73054e-05,0.000322506,0.000287059,-1.21378e-05,2.50991e-06
1025,0.00051179,-0.00228987,0.00326401,-0.00562959,0.120911,0.120911,0.120911,0.120911,0.120911,0.120911,0.120911,0.120911,0.120911,-0.870911,0.0441079,-0.614038,1.06652,-0.00228987,0.00326401,-0.00562959,-0.00426963,0.000260327,0.00139398,-0.00073655,-0.00131872,-0.00202509,0.120911,-1.9595e-05,0.0195543,-0.00205856,0.0148998,0.000113386,-0.00279195,0.0263154,-0.0173778,0.008882,0.0021351,-0.00371435,0.00280217,-0.020299,-0.00133882,-0.023488,-0.00426963,0.000260327,0.00139398,-0.00073655,-0.00131872,-0.00202509,0,0,0,0,0,0,0,0,0,-0.000397839,-2.20142e-05,-2.93476e-05,-0.00031249,-0.000305796,1.13653e-05,4.01592e-05,-2.48452e-05,0.000346579,0.00029851,-2.54855e-05,-1.73876e-05
1026,0.00051179,0.00317563,0.0105638,0.0229702,0.0373728,0.0373728,0.0373728,0.0373728,0.0373728,0.0373728,0.0373728,0.0373728,0.0373728,-0.787373,-0.854098,0.627916,1.3205,0.00317563,0.0105638,0.0229702,-0.00495989,0.000309233,-0.00182888,-0.00399472,-0.00936058,-0.00251611,0.0373728,0.00114281,-0.0096308,0.00024379,-0.00224339,0.00151405,-0.00027724,-0.002023,0.00494112,-0.00166427,-0.00955927,-0.000841507,-0.00605574,0.00123885,-0.000130985,-0.0148915,-0.00495989,0.000309233,-0.00182888,-0.00399472,-0.00936058,-0.00251611,0,0,0,0,0,0,0,0,0,-0.000409596,-5.09713e-06,-0.000473796,-0.00046252,-0.000294471,0.000479327,-1.43067e-05,-9.44101e-05,0.000364475,0.000441459,-7.61075e-06,7.52792e-07
1027,0.00051179,0.0721817,-0.0866518,-0.0893941,0.00820411,0.00820411,0.00820411,0.00820411,0.00820411,0.00820411,0.00820411,0.00820411,0.00820411,-0.758204,-0.125872,-0.0764392,0.772373,0.0721817,-0.0866518,-0.0893941,0.0245087,-0.014597,0.0606871,0.0254052,-0.00168486,0.00677718,0.00820411,-0.370859,-3.199,0.18307,2.08191,-1.43248,0.0403406,-1.23636,4.55929,-0.274814,0.405941,-0.0300587,0.127572,-2.4012,-0.0213106,1.19818,0.0245087,-0.014597,0.0606871,0.0254052,-0.00168486,0.00677718,0,0,0,0,0,0,0,0,0,-0.000708319,-0.00102757,0.000856688,0.00135474,-0.000264371,0.000828041,-0.000542862,-0.000518343,0.000380412,-0.000344459,0.000200907,0.000631517
1028,0.00051179,0.009563,-0.00284657,0.00433946,0.0633467,0.0633467,0.0633467,0.0633467,0.0633467,0.0633467,0.0633467,0.0633467,0.0633467,-0.936653,0.407546,-0.457712,1.11934,0.009563,-0.00284657,0.00433946,-0.00554124,-0.0016758,-0.00323856,0.00498247,-0.00563373,0.00077075,0.0633467,-0.0175508,0.242588,0.000974782,-0.0135662,0.00532942,-0.020478,0.162128,-0.257481,-0.00169532,0.0412715,-0.0052504,0.0149366,-0.0248588,-0.0154037,-0.181404,-0.00554124,-0.0016758,-0.00323856,0.00498247,-0.00563373,0.00077075,0,0,0,0,0,0,0,0,0,-0.000503339,-7.57242e-05,-0.000276991,-0.000382341,-0.000304455,0.000269981,5.61717e-05,-3.63412e-05,0.000306748,0.000145175,-7.25001e-05,-3.34288e-05
1029,0.00051179,-0.00128046,-0.00938194,0.00483938,0.0810422,0.0810422,0.0810422,0.0810422,0.0810422,0.0810422,0.0810422,0.0810422,0.0810422,-0.918958,-0.327191,-0.340092,1.03305,-0.00128046,-0.00938194,0.00483938,-0.0079793,-0.0025888,0.00326208,-0.000332591,0.00194893,-0.00344056,0.0810422,-0.0571757,0.503517,0.00793309,-0.140078,-0.0103726,-0.0566499,0.160084,-0.491864,-0.0206936,-0.0364227,0.00719872,-0.0355794,0.185883,-0.0338086,-0.129344,-0.0079793,-0.0025888,0.00326208,-0.000332591,0.00194893,-0.00344056,0,0,0,0,0,0,0,0,0,-0.000535287,-0.000183355,0.000225257,-0.000574605,-0.000317538,-0.000171814,3.72884e-05,5.71186e-05,0.000325568,4.07264e-05,3.43579e-05,-4.3826e-05
1030,0.00051179,-0.0751872,0.0289369,-0.0673437,0.0451003,0.0451003,0.0451003,0.0451003,0.0451003,0.0451003,0.0451003,0.0451003,0.0451003,-0.680118,0.304456,0.0548997,0.747173,-0.0751872,0.0289369,-0.0673437,0.0292753,-0.0484121,-0.00230682,-0.0237955,-0.0194082,0.00984129,0.0451003,1.22336,4.58087,0.635911,4.40982,1.19806,-0.0314324,-4.07508,-5.70375,0.594465,0.716937,0.233771,0.670572,-5.15569,0.214687,3.47185,0.0292753,-0.0484121,-0.00230682,-0.0237955,-0.0194082,0.00984129,0,0,0,0,0,0,0,0,0,2.11075e-05,0.00390029,0.00292763,0.0097967,-3.43267e-05,0.00294736,0.000490463,0.00464759,-0.000112869,-0.0101341,-0.00250396,-0.00124024
1031,0.00051179,-0.00147043,0.000827882,0.0056063,0.0798531,0.0798531,0.0798531,0.0798531,0.0798531,0.0798531,0.0798531,0.0798531,0.0798531,-0.920147,0.297446,0.698863,1.19313,-0.00147043,0.000827882,0.0056063,-0.00202477,8.17981e-05,-0.000187619,0.00675057,-0.000868254,0.00410129,0.0798531,0.000592247,-0.014996,0.00040967,0.00146103,0.000846658,-0.00135587,0.0276391,0.0156198,-0.000262545,-0.000898393,-0.00120168,-0.00101074,-0.00139052,0.0023304,-0.0322347,-0.00202477,8.17981e-05,-0.000187619,0.00675057,-0.000868254,0.00410129,0,0,0,0,0,0,0,0,0,-0.000625469,-2.04171e-05,0.000152336,-0.000246499,-0.000331247,-0.000147422,1.91857e-05,8.20199e-06,0.000301503,0.000231064,-2.89014e-05,1.8904e-05
1032,0.00051179,-0.0155315,0.0496223,-0.121052,0.0228594,0.0228594,0.0228594,0.0228594,0.0228594,0.0228594,0.0228594,0.0228594,0.0228594,-0.69614,0.106801,0.0771406,0.708497,-0.0155315,0.0496223,-0.121052,-0.055209,-0.0487503,0.0523141,-0.111483,-0.0136049,0.076851,0.0228594,0.524459,0.497265,0.314816,2.10722,2.96845,-0.0453947,-1.08853,-3.45018,0.631017,0.879251,0.0302069,0.249252,-3.03609,0.0945797,0.96033,-0.055209,-0.0487503,0.0523141,-0.111483,-0.0136049,0.076851,0,0,0,0,0,0,0,0,0,-0.00034263,0.00100754,0.00120284,0.00220531,-0.00021016,0.00145782,0.00125896,0.00107207,0.000307985,-0.00213612,-0.000906047,-0.000481555
1033,0.00051179,0.00457488,0.0379154,-0.0121495,0.0016485,0.0016485,0.0016485,0.0016485,0.0016485,0.0016485,0.0016485,0.0016485,0.0016485,-0.751648,-0.163872,0.509133,0.922522,0.00457488,0.0379154,-0.0121495,0.00280332,-0.0114485,0.00360641,-0.00306352,-3.91095e-05,-0.00249814,0.0016485,-3.59267e-05,-0.0115338,5.83604e-05,-0.0188946,0.000914043,2.69301e-05,0.0435162,0.0060449,-0.0162561,-0.00823453,0.000230061,-0.00086382,-0.0107862,0.00310392,-0.0305029,0.00280332,-0.0114485,0.00360641,-0.00306352,-3.91095e-05,-0.00249814,0,0,0,0,0,0,0,0,0,-0.000598922,3.22368e-05,-0.000121044,-0.000214871,-0.000329876,7.14305e-06,-7.81985e-05,3.23149e-05,0.000344612,0.000251204,-3.04054e-05,2.14287e-05
1034,0.00051179,-0.000564961,-0.00332817,0.00465126,0.0812517,0.0812517,0.0812517,0.0812517,0.0812517,0.0812517,0.0812517,0.0812517,0.0812517,-0.831252,-0.194968,0.831086,1.19151,-0.000564961,-0.00332817,0.00465126,0.000530184,-0.00124363,-0.000555778,-0.00293884,-0.00170507,0.00572719,0.0812517,0.000599876,-0.002657,3.49954e-05,-0.000847774,0.000166942,0.000229631,0.00220674,0.00305502,-0.00063129,0.000386834,-0.000586906,0.000125868,0.00378911,-0.000183262,-0.00698386,0.000530184,-0.00124363,-0.000555778,-0.00293884,-0.00170507,0.00572719,0,0,0,0,0,0,0,0,0,-0.000666641,2.06893e-06,-0.000112624,-0.000240099,-0.000331962,0.000100538,-2.1432e-05,7.77757e-06,0.000336342,0.000236837,-3.06973e-05,2.41383e-05
1035,0.00051179,0.0811019,-0.0054419,-0.0421603,0.0551903,0.0551903,0.0551903,0.0551903,0.0551903,0.0551903,0.0551903,0.0551903,0.0551903,-0.80519,-0.315289,0.0542796,0.866421,0.0811019,-0.0054419,-0.0421603,0.00745021,0.0112501,0.00761195,-0.00945632,-0.00500364,0.000790387,0.0551903,0.538733,4.59697,-0.167352,-2.22527,0.224652,0.243074,0.962385,-4.90273,0.160738,-0.120125,-0.101676,0.0401476,2.35084,-0.106886,-0.960373,0.00745021,0.0112501,0.00761195,-0.00945632,-0.00500364,0.000790387,0,0,0,0,0,0,0,0,0,-0.000333048,0.00204857,-0.000864248,0.00340428,-0.000438506,-0.000696767,7.40593e-05,-0.00104726,0.000404775,-0.000897419,-1.95385e-05,-0.00121283
1036,0.00051179,-4.81276e-05,-0.0113487,-0.00208354,0.0696878,0.0696878,0.0696878,0.0696878,0.0696878,0.0696878,0.0696878,0.0696878,0.0696878,-0.819688,-0.667144,-0.670441,1.25158,-4.81276e-05,-0.0113487,-0.00208354,-0.00405344,0.00122485,0.00367935,0.000773626,-0.00817143,-0.000257258,0.0696878,0.00111993,0.00150159,-0.000821225,0.00709633,0.000215638,-0.000443138,0.0093972,-0.0016691,0.00416122,0.0174186,-0.0015039,-0.000113683,-0.0131662,0.000789594,-0.00719998,-0.00405344,0.00122485,0.00367935,0.000773626,-0.00817143,-0.000257258,0,0,0,0,0,0,0,0,0,-0.000510462,-1.7591e-05,0.000370319,-0.00041196,-0.000340486,-0.000366283,2.17508e-05,-0.000155264,0.000355035,0.000444322,5.85103e-05,-2.61788e-07
1037,0.00051179,-0.00740457,0.0129238,-0.0185689,0.104882,0.104882,0.104882,0.104882,0.104882,0.104882,0.104882,0.104882,0.104882,-0.895118,0.459751,0.159564,1.01886,-0.00740457,0.0129238,-0.0185689,0.0157784,-0.0035544,0.0102428,0.0130978,0.00911373,-0.000592321,0.104882,0.51047,2.4122,0.0566003,0.483224,-0.329361,-0.123974,-1.87078,-2.07543,0.0881682,-0.129534,-0.0408303,0.046892,-0.366614,-0.0583985,1.84246,0.0157784,-0.0035544,0.0102428,0.0130978,0.00911373,-0.000592321,0,0,0,0,0,0,0,0,0,-0.000330724,0.00197525,0.000531394,-0.000365268,-0.00027656,-9.34233e-07,-0.000149659,-0.000243642,0.000307359,-0.00077204,-7.35241e-05,-0.000950943
1038,0.00051179,0.0382982,0.00677001,-0.0240173,0.0527316,0.0527316,0.0527316,0.0527316,0.0527316,0.0527316,0.0527316,0.0527316,0.0527316,-0.802732,0.931845,0.2784,1.26104,0.0382982,0.00677001,-0.0240173,0.0103703,-0.000850074,0.00392512,-0.00951806,0.047737,-0.00264823,0.0527316,0.0047033,-0.180458,-0.00701671,0.215763,0.0737126,0.0118257,-0.291693,0.0684475,-0.0102906,0.180475,0.0298749,-0.307846,-0.403008,-0.0680426,0.623556,0.0103703,-0.000850074,0.00392512,-0.00951806,0.047737,-0.00264823,0,0,0,0,0,0,0,0,0,-0.000176899,0.000162398,0.000680611,-0.000927411,-0.000476474,-0.000759279,-1.20133e-05,0.000642102,0.00035315,0.00108492,0.000134016,-0.000266424
1039,0.00051179,0.0650901,-0.0391427,0.097721,0.000496023,0.000496023,0.000496023,0.000496023,0.000496023,0.000496023,0.000496023,0.000496023,0.000496023,-0.750496,0.138016,0.251413,0.803431,0.0650901,-0.0391427,0.097721,0.0392781,0.00364154,0.0224006,0.0209532,-0.0275846,-0.0374069,0.000496023,0.00050725,-0.0277208,0.000559278,-0.0419752,-0.00358541,-0.000142574,0.0860654,-0.0337839,0.0107969,-0.111364,-0.0124771,-0.0784965,0.192482,0.0201645,-0.10529,0.0392781,0.00364154,0.0224006,0.0209532,-0.0275846,-0.0374069,0,0,0,0,0,0,0,0,0,-0.000507265,0.000136281,0.000226213,-0.000627806,-0.000329161,-0.000184205,9.61049e-05,-0.000323054,0.000344343,0.000850386,-7.75631e-05,-0.000148858
1040,0.00051179,0.00820541,0.00132291,0.00890992,0.0408065,0.0408065,0.0408065,0.0408065,0.0408065,0.0408065,0.0408065,0.0408065,0.0408065,-0.959193,-0.901378,-0.81507,1.54818,0.00820541,0.00132291,0.00890992,-0.000828527,-0.000833776,0.00273065,-0.00264533,0.00662609,-0.00135484,0.0408065,0.00195976,-0.00812482,-0.00101646,0.00276208,-0.00318153,0.00145457,-0.00590262,0.00310094,-0.000933306,-0.00342772,-0.000397832,-0.00361564,-0.000657268,-0.00164181,0.000608342,-0.000828527,-0.000833776,0.00273065,-0.00264533,0.00662609,-0.00135484,0,0,0,0,0,0,0,0,0,-0.00052613,1.19377e-05,0.000336588,-0.000513049,-0.000274057,-0.00035509,-1.16116e-05,-7.96089e-05,0.000256084,0.000554901,0.000141891,-8.70163e-06
1041,0.00051179,0.0744972,0.153276,0.00704848,0.026234,0.026234,0.026234,0.026234,0.026234,0.026234,0.026234,0.026234,0.026234,-0.662287,0.634944,0.073766,0.920446,0.0744972,0.153276,0.00704848,-0.0989273,-0.0383231,0.0263247,0.0847389,-0.016367,-0.012108,0.026234,5.25849,21.6271,0.309381,3.75656,-4.49227,-0.251766,0.742857,-17.2093,0.93827,-0.878093,0.0787851,-0.693512,-3.03174,0.483217,-0.0563939,-0.0989273,-0.0383231,0.0263247,0.0847389,-0.016367,-0.012108,0,0,0,0,0,0,0,0,0,0.00153705,0.0181205,0.00142898,0.0261755,-0.000234896,0.00128161,-0.00256229,0.000461107,-0.00112922,-0.0284299,0.000163074,-0.00532178
1042,0.00051179,0.0197227,-0.0134805,-0.0165343,0.0541676,0.0541676,0.0541676,0.0541676,0.0541676,0.0541676,0.0541676,0.0541676,0.0541676,-0.804168,-0.318185,-0.00382068,0.864836,0.0197227,-0.0134805,-0.0165343,0.00376079,0.00489333,0.00163935,-0.0076166,-0.00459712,-0.0155296,0.0541676,-0.0464781,-0.346281,0.0109173,0.085287,0.0351835,0.380521,2.04532,0.291375,0.00017844,0.0583031,-0.168059,0.112447,-0.13011,-0.00132534,-2.14124,0.00376079,0.00489333,0.00163935,-0.0076166,-0.00459712,-0.0155296,0,0,0,0,0,0,0,0,0,-0.000574417,-0.000136267,0.000130092,0.00462012,-0.000358099,2.80146e-05,4.01289e-05,-0.00160078,0.000442289,-0.000798521,-0.000125782,-6.95507e-06
1043,0.00051179,-0.0310834,-0.046534,-0.0194757,0.0054874,0.0054874,0.0054874,0.0054874,0.0054874,0.0054874,0.0054874,0.0054874,0.0054874,-0.755487,0.545917,0.278988,0.972945,-0.0310834,-0.046534,-0.0194757,0.0564977,-0.0127145,0.0701186,-0.0116818,-0.0102749,-0.00916947,0.0054874,-0.000286564,0.00924098,-0.00101399,-0.0298663,0.00285413,-0.00133933,0.419563,0.0189883,-0.0372613,-0.0350649,0.00145482,0.122753,0.111465,0.054523,-0.522841,0.0564977,-0.0127145,0.0701186,-0.0116818,-0.0102749,-0.00916947,0,0,0,0,0,0,0,0,0,-0.0003713,0.000220338,0.000473152,-0.00131706,-0.000393236,-0.000610437,-0.000305432,-0.000105188,0.000331119,0.00200485,1.69876e-05,0.00016605
1044,0.00051179,-0.00400645,0.00578144,0.013507,0.0648088,0.0648088,0.0648088,0.0648088,0.0648088,0.0648088,0.0648088,0.0648088,0.0648088,-0.814809,-0.696973,-0.300288,1.11349,-0.00400645,0.00578144,0.013507,-0.0220309,-0.00277595,-0.0168528,0.0143921,-0.0178925,-0.0201172,0.0648088,-0.0159907,0.756436,-0.00833612,0.135815,0.0457095,-0.0389188,0.863634,-0.798139,0.0321331,0.0477823,-0.0246052,0.102446,-0.189379,-0.0610581,-0.979588,-0.0220309,-0.00277595,-0.0168528,0.0143921,-0.0178925,-0.0201172,0,0,0,0,0,0,0,0,0,-0.000735067,-0.000106256,0.000480438,-0.00126523,-0.000433678,-0.000591559,0.000316478,-0.000339761,0.000334665,0.000707518,-8.52158e-05,-0.000322025
1045,0.00051179,0.000531233,-0.00553267,0.00390126,0.108065,0.108065,0.108065,0.108065,0.108065,0.108065,0.108065,0.108065,0.108065,-0.891935,0.643652,-0.765759,1.34023,0.000531233,-0.00553267,0.00390126,-0.00376597,-0.00156951,0.000936247,-0.00142477,-0.00243338,0.000173168,0.108065,-1.95354e-05,0.00620608,-0.00111886,0.0080969,0.000615807,0.000190135,-0.0105345,-0.00735312,-0.000268074,-0.00185658,3.69828e-06,0.00118391,-0.00070765,-0.000200208,0.00544934,-0.00376597,-0.00156951,0.000936247,-0.00142477,-0.00243338,0.000173168,0,0,0,0,0,0,0,0,0,-0.000456333,-1.25752e-05,-0.000307959,-0.000443899,-0.000301355,0.000281075,-2.11184e-06,8.91256e-05,0.000303023,0.000455162,-0.000113422,6.21717e-06
1046,0.00051179,0.0723975,0.0168065,0.0399213,0.0810423,0.0810423,0.0810423,0.0810423,0.0810423,0.0810423,0.0810423,0.0810423,0.0810423,-0.668958,-0.917376,0.0120927,1.13544,0.0723975,0.0168065,0.0399213,-0.023862,0.00384268,0.0767903,0.0102626,0.0550905,0.00393987,0.0810423,0.678698,3.45842,0.0825164,-0.0345207,0.42876,1.44993,-7.09665,-3.95957,0.0177787,0.373192,0.160532,0.881023,-0.355477,0.0297549,6.1757,-0.023862,0.00384268,0.0767903,0.0102626,0.0550905,0.00393987,0,0,0,0,0,0,0,0,0,-0.000255525,0.00244737,-7.25486e-06,0.0281851,-0.000232065,0.000870846,-0.000686607,0.0129444,0.000540867,-0.0129179,-0.0107882,-0.00065834
1047,0.00051179,-0.0134306,-0.0062063,-0.0318695,0.0892472,0.0892472,0.0892472,0.0892472,0.0892472,0.0892472,0.0892472,0.0892472,0.0892472,-0.839247,-0.896817,-0.380225,1.28576,-0.0134306,-0.0062063,-0.0318695,-0.0125624,0.00670649,0.0029145,-0.00261988,-0.0189841,0.00217146,0.0892472,0.00276025,-0.0372743,-0.00442808,0.0567307,-0.0240243,0.00427561,-0.0759287,0.0747293,0.00592245,0.076912,-0.0125562,-0.0641319,-0.127436,0.0135075,0.17193,-0.0125624,0.00670649,0.0029145,-0.00261988,-0.0189841,0.00217146,0,0,0,0,0,0,0,0,0,-0.000780001,-5.96024e-05,0.000653907,-0.000707793,-0.000412131,-0.000631123,5.92127e-06,-0.000452854,0.000328682,0.000779694,0.000137452,6.78032e-05
1048,0.00051179,0.00565228,-0.00428479,0.0223134,0.0506008,0.0506008,0.0506008,0.0506008,0.0506008,0.0506008,0.0506008,0.0506008,0.0506008,-0.949399,0.528477,0.013358,1.08666,0.00565228,-0.00428479,0.0223134,0.00313885,-0.0027314,-0.0270667,0.00357387,0.0115315,-0.0110304,0.0506008,0.106579,0.411281,-0.00322776,0.079689,-0.0423638,0.228043,1.65639,-0.374569,0.0314738,-0.00108308,0.0112334,-0.334928,-0.0743211,-0.0127024,-1.34378,0.00313885,-0.0027314,-0.0270667,0.00357387,0.0115315,-0.0110304,0,0,0,0,0,0,0,0,0,-0.000565238,0.000408936,-2.62659e-05,0.0016239,-0.000292862,-3.33257e-05,3.55854e-05,0.000183592,0.000456639,0.000385859,4.40564e-05,-0.000258317
1049,0.00051179,0.0206513,-0.0146945,-0.0456957,0.0494384,0.0494384,0.0494384,0.0494384,0.0494384,0.0494384,0.0494384,0.0494384,0.0494384,-0.870607,0.950562,0.236212,1.31047,0.0206513,-0.0146945,-0.0456957,-0.01758,0.010838,-0.0460872,-0.00868325,0.0272266,0.00287522,0.0494384,0.0567769,-0.256982,-0.0305653,0.0502778,0.456977,0.0497529,-0.809231,-0.220647,-0.000239151,0.1043,0.0306898,-0.425583,-0.139883,-0.0968456,1.28051,-0.01758,0.010838,-0.0460872,-0.00868325,0.0272266,0.00287522,0,0,0,0,0,0,0,0,0,-0.000136815,0.00026948,0.000848722,-0.000754723,-0.000440085,-0.001046,2.88833e-05,0.00048738,0.000305586,0.00079138,9.17839e-05,-0.000396357
1050,0.00051179,0.00658265,0.0158799,-0.00634818,0.0313394,0.0313394,0.0313394,0.0313394,0.0313394,0.0313394,0.0313394,0.0313394,0.0313394,-0.781339,0.771927,-0.647644,1.27507,0.00658265,0.0158799,-0.00634818,-0.0104374,0.000794142,0.00121289,-0.000632813,0.0154463,0.00284694,0.0313394,0.00115694,-0.00608245,-0.000561409,0.0146405,-0.000532669,9.68948e-05,0.0129073,3.24744e-05,0.00426681,-0.0204941,-0.00166034,0.00397084,-0.0100263,0.000918116,-0.0105299,-0.0104374,0.000794142,0.00121289,-0.000632813,0.0154463,0.00284694,0,0,0,0,0,0,0,0,0,-0.000562333,-4.42313e-05,-0.000410981,-0.000524624,-0.000246787,0.000413309,2.03408e-05,0.000197551,0.000345521,0.000537722,-5.96921e-05,2.09961e-05
1051,0.00051179,-0.0454997,-0.0453629,0.0372343,0.0224995,0.0224995,0.0224995,0.0224995,0.0224995,0.0224995,0.0224995,0.0224995,0.0224995,-0.7725,0.360398,0.131339,0.862492,-0.0454997,-0.0453629,0.0372343,0.016657,0.0590848,0.0108563,0.0299458,-0.0261035,-0.00247952,0.0224995,0.892401,0.893534,0.206771,-0.177933,-0.104119,-0.461802,-6.17511,-0.743916,0.306362,-0.0184231,-0.129495,0.0625648,0.241719,0.322863,6.07531,0.016657,0.0590848,0.0108563,0.0299458,-0.0261035,-0.00247952,0,0,0,0,0,0,0,0,0,-9.13665e-05,0.00273866,0.0016212,-0.00310905,-0.000202442,0.00103736,-0.000125092,-0.00108362,0.000226364,-0.00140041,-0.000472364,-0.000204718
1052,0.00051179,-0.000922118,-0.000583257,0.00225014,0.0737245,0.0737245,0.0737245,0.0737245,0.0737245,0.0737245,0.0737245,0.0737245,0.0737245,-0.823725,-0.866035,0.846874,1.46483,-0.000922118,-0.000583257,0.00225014,0.000830863,0.000798218,-0.000376921,0.000891924,-3.63332e-05,0.00344725,0.0737245,0.000887051,-0.00254407,-0.000101857,-0.000208894,0.00162721,0.000197705,-3.41519e-05,0.00183897,-0.000424491,-0.00160671,-0.000632301,-0.00263318,0.00239886,-0.00073136,0.000417197,0.000830863,0.000798218,-0.000376921,0.000891924,-3.63332e-05,0.00344725,0,0,0,0,0,0,0,0,0,-0.000503778,2.93429e-06,-0.000340297,-0.000449364,-0.000320161,0.000347261,-3.31811e-06,-2.39495e-05,0.000350043,0.000447572,1.72632e-05,7.92419e-06
1053,0.00051179,-0.0620313,0.00717127,-0.0445623,0.0336772,0.0336772,0.0336772,0.0336772,0.0336772,0.0336772,0.0336772,0.0336772,0.0336772,-0.783677,-0.880226,-0.134238,1.18616,-0.0620313,0.00717127,-0.0445623,0.0369322,-0.0588023,0.0413995,-0.064922,-0.0950473,0.0262343,0.0336772,-1.01407,-3.22904,-0.210876,-0.751887,-0.357379,-0.331115,-7.853,3.64845,-0.00848766,-0.324887,-0.134506,-0.131718,1.0696,0.0651031,8.02928,0.0369322,-0.0588023,0.0413995,-0.064922,-0.0950473,0.0262343,0,0,0,0,0,0,0,0,0,-0.0012351,-0.00377892,-0.000327314,-0.00325385,-0.000668103,-0.00236947,0.000739737,-0.000785488,0.000438519,0.000356702,-0.00151005,0.00156347
1054,0.00051179,-0.00311565,0.0117064,-0.138185,0.00799813,0.00799813,0.00799813,0.00799813,0.00799813,0.00799813,0.00799813,0.00799813,0.00799813,-0.774507,-0.992002,-0.135273,1.26579,-0.00311565,0.0117064,-0.138185,-0.252848,-0.0145669,-0.0416888,-0.0300984,-0.14136,0.259133,0.00799813,-0.63804,0.380585,-0.0278567,-0.177924,-3.16817,-0.100828,-5.7657,2.7907,0.00132458,0.158293,-0.0255399,-2.71958,0.00792422,0.416416,8.62347,-0.252848,-0.0145669,-0.0416888,-0.0300984,-0.14136,0.259133,0,0,0,0,0,0,0,0,0,-0.00134777,-0.00417277,0.00321729,-0.00410985,-0.00074535,-0.00364153,0.000137799,-0.00179992,0.000584014,0.00268469,0.000130924,0.00365941
1055,0.00051179,-0.00485771,-0.000141908,-0.00596943,0.038305,0.038305,0.038305,0.038305,0.038305,0.038305,0.038305,0.038305,0.038305,-0.881417,-0.198505,-0.961695,1.31953,-0.00485771,-0.000141908,-0.00596943,-0.00555301,-0.000230249,0.00267534,-0.00548242,-0.00140501,-0.00104889,0.038305,0.00160076,-0.00581265,-0.000348382,0.00205966,0.00016426,0.0008315,0.00092302,0.0105061,-0.0012309,0.000309368,2.27774e-05,-0.000150217,-0.00222712,-0.00131303,0.00519663,-0.00555301,-0.000230249,0.00267534,-0.00548242,-0.00140501,-0.00104889,0,0,0,0,0,0,0,0,0,-0.000298381,-4.72954e-06,0.000103626,-0.000326951,-0.000301892,-0.000109412,-1.85349e-05,-1.40468e-05,0.000348039,0.000362019,2.24487e-07,3.22214e-06
1056,0.00051179,0.00270712,0.0206934,0.0224982,0.0842873,0.0842873,0.0842873,0.0842873,0.0842873,0.0842873,0.0842873,0.0842873,0.0842873,-0.834287,-0.780962,0.32095,1.18699,0.00270712,0.0206934,0.0224982,-0.00304666,-0.00223938,0.000328794,-0.0139085,-0.0257772,0.00488546,0.0842873,0.0173486,-0.459855,0.0115444,-0.160182,-0.0128567,-0.0216384,0.375427,0.470004,-0.028485,-0.137951,-0.0255425,0.0721584,0.27744,0.0290529,-0.470084,-0.00304666,-0.00223938,0.000328794,-0.0139085,-0.0257772,0.00488546,0,0,0,0,0,0,0,0,0,-0.000302307,6.47635e-05,-0.000621744,-0.000717168,-0.000265742,0.000714793,-0.000218714,-0.000326137,0.000328436,0.000504072,-0.00018706,0.000162946
1057,0.00051179,0.0216084,0.0425866,0.0785923,0.0502029,0.0502029,0.0502029,0.0502029,0.0502029,0.0502029,0.0502029,0.0502029,0.0502029,-0.653609,-0.795876,0.0497971,1.03107,0.0216084,0.0425866,0.0785923,-0.0104727,-0.0244849,-0.0168908,0.0203453,0.00879383,-0.0218306,0.0502029,3.49473,15.4504,0.254882,-0.617795,-2.35808,0.389791,-3.946,-13.1139,0.398154,2.12786,0.0690394,-0.879231,-1.55265,0.302684,4.74664,-0.0104727,-0.0244849,-0.0168908,0.0203453,0.00879383,-0.0218306,0,0,0,0,0,0,0,0,0,0.00100962,0.012594,0.000712728,0.0302755,-6.63344e-05,0.00159125,-0.00273474,0.00615957,-0.000794843,-0.0265465,-0.00538124,-0.00342298
1058,0.00051179,0.00039085,0.0014171,-0.000509096,0.0511363,0.0511363,0.0511363,0.0511363,0.0511363,0.0511363,0.0511363,0.0511363,0.0511363,-0.801136,-0.259211,0.713398,1.10361,0.00039085,0.0014171,-0.000509096,0.00400112,-0.000366798,-0.000211405,-0.00717553,-0.00388007,0.00692511,0.0511363,0.000246421,-0.00185279,0.000191219,0.000293853,-4.85525e-05,8.76114e-05,0.00413592,0.00151049,-0.00178231,-0.00181427,-0.000863068,0.000121205,0.000103312,0.000314463,-0.00374803,0.00400112,-0.000366798,-0.000211405,-0.00717553,-0.00388007,0.00692511,0,0,0,0,0,0,0,0,0,-0.00062982,1.83193e-05,-0.000161305,-0.000228685,-0.000325615,0.00015955,-4.77076e-05,-8.10213e-06,0.00034222,0.000227447,-3.93292e-05,3.32795e-05
1059,0.00051179,0.00928065,-0.0040184,0.00206678,0.118692,0.118692,0.118692,0.118692,0.118692,0.118692,0.118692,0.118692,0.118692,-0.881308,-0.183542,-0.320027,0.95541,0.00928065,-0.0040184,0.00206678,-0.00747874,0.00269317,-0.00102575,-0.0014354,0.0107105,-0.00245106,0.118692,-0.0256405,0.321901,0.00352419,-0.0907187,-0.01386,-0.0338866,0.14647,-0.317322,-0.0185792,-0.018677,-2.02535e-05,-0.0352521,0.113414,-0.0286134,-0.113284,-0.00747874,0.00269317,-0.00102575,-0.0014354,0.0107105,-0.00245106,0,0,0,0,0,0,0,0,0,-0.000524662,-6.84442e-05,0.000149359,-0.000574497,-0.000318104,-8.7185e-05,-2.92109e-06,7.54616e-05,0.000334963,0.000225373,3.14408e-05,-5.81706e-05
1060,0.00051179,0.00316875,-0.002163,0.00261984,0.105617,0.105617,0.105617,0.105617,0.105617,0.105617,0.105617,0.105617,0.105617,-0.894383,-0.822615,-0.768176,1.43761,0.00316875,-0.002163,0.00261984,-0.00336518,0.00277951,0.00212006,-0.00234266,0.00337854,-0.000254752,0.105617,0.00116141,0.000533857,-0.00103485,0.00472141,-0.00157284,0.00107303,-0.00807679,-0.00212977,-0.00103103,0.000345061,-0.000429983,-0.000439778,-0.00290347,-7.86744e-05,0.00589672,-0.00336518,0.00277951,0.00212006,-0.00234266,0.00337854,-0.000254752,0,0,0,0,0,0,0,0,0,-0.000522003,-4.1986e-06,0.000352372,-0.00048335,-0.000301713,-0.000334925,-1.00482e-05,-0.0001115,0.000301525,0.000515281,0.000140985,5.15311e-06
1061,0.00051179,0.0320513,-0.00697361,-0.046515,0.0986305,0.0986305,0.0986305,0.0986305,0.0986305,0.0986305,0.0986305,0.0986305,0.0986305,-0.90137,0.751844,0.248567,1.1998,0.0320513,-0.00697361,-0.046515,0.00409022,-0.00145876,0.0130279,-0.00156756,-0.00337611,0.0116965,0.0986305,0.187191,-0.592509,-0.0382174,0.0517672,-0.171752,-0.0951354,-0.655758,0.732209,-0.00493078,-0.0747404,0.0169101,0.212131,0.0299468,0.0262019,0.490142,0.00409022,-0.00145876,0.0130279,-0.00156756,-0.00337611,0.0116965,0,0,0,0,0,0,0,0,0,-0.000277169,0.000699468,0.000455462,-0.000728059,-0.000371421,-0.000852223,-0.000289432,8.11998e-05,0.000263192,-9.3016e-05,5.41399e-05,-6.74485e-05
1062,0.00051179,0.00450387,0.000369357,0.00214429,0.0410356,0.0410356,0.0410356,0.0410356,0.0410356,0.0410356,0.0410356,0.0410356,0.0410356,-0.791036,0.200944,-0.371634,0.896787,0.00450387,0.000369357,0.00214429,-0.003955,0.00453169,-0.00263475,-0.00511912,-0.009111,0.00782317,0.0410356,-0.00151865,0.0547945,-6.48201e-07,-0.0052018,0.00350164,-0.00476024,0.178927,-0.0628,0.0342806,0.0333631,-0.00767455,0.00654725,-0.0285306,-0.0184572,-0.187618,-0.003955,0.00453169,-0.00263475,-0.00511912,-0.009111,0.00782317,0,0,0,0,0,0,0,0,0,-0.000506781,-4.24304e-05,-0.000156761,-0.000510492,-0.000297302,0.000202071,0.000130745,-0.000105423,0.000358641,0.000436542,-6.24321e-05,-6.82323e-05
1063,0.00051179,0.0113361,0.00703785,-0.0719441,0.0182479,0.0182479,0.0182479,0.0182479,0.0182479,0.0182479,0.0182479,0.0182479,0.0182479,-0.790936,0.981752,-0.245123,1.28433,0.0113361,0.00703785,-0.0719441,-0.0283119,-0.0217931,-0.0575951,-0.013024,0.0195721,-0.00451049,0.0182479,-0.00217973,0.179869,0.00341285,-0.125365,-0.147573,0.00821292,-0.627778,-0.0436323,-0.00249841,-0.120435,0.0181748,-0.649018,0.238761,0.124251,1.34874,-0.0283119,-0.0217931,-0.0575951,-0.013024,0.0195721,-0.00451049,0,0,0,0,0,0,0,0,0,-0.00100853,-0.000237527,-0.00105938,-0.0017124,-7.50963e-05,0.000875581,-0.000162681,0.00104749,0.000370122,0.00121858,-0.000670024,0.000513634
1064,0.00051179,0.00475014,-0.00335478,0.000731108,0.00873626,0.00873626,0.00873626,0.00873626,0.00873626,0.00873626,0.00873626,0.00873626,0.00873626,-0.88525,-0.207539,0.991264,1.34512,0.00475014,-0.00335478,0.000731108,0.000812213,-0.000232621,-0.000252206,0.00672121,-0.00161925,0.00618489,0.00873626,0.000906006,-0.00160542,-0.000395887,-0.000532347,4.7083e-05,0.000329826,0.00245801,-0.0031918,-0.000768499,0.000697029,0.000110597,0.000324308,0.0031901,-0.00132326,-0.00351343,0.000812213,-0.000232621,-0.000252206,0.00672121,-0.00161925,0.00618489,0,0,0,0,0,0,0,0,0,-0.000704765,-5.86955e-06,-0.000107533,-0.000256632,-0.000335032,0.000101248,1.53029e-05,1.07766e-05,0.000326239,0.000257408,-2.58632e-05,9.84751e-06
1065,0.00051179,-0.00650549,0.000648283,-0.00920389,0.0182039,0.0182039,0.0182039,0.0182039,0.0182039,0.0182039,0.0182039,0.0182039,0.0182039,-0.850782,-0.20345,-0.981796,1.31497,-0.00650549,0.000648283,-0.00920389,-0.00313011,-0.000498983,0.0012536,-0.00175869,-0.00142116,7.67099e-05,0.0182039,0.00165035,-0.00703124,-0.000155054,0.00177493,0.000207615,0.000645913,0.00217675,0.0133291,-0.000957208,0.000554907,4.93964e-05,-0.00037677,-0.00297812,-0.00120385,0.00740391,-0.00313011,-0.000498983,0.0012536,-0.00175869,-0.00142116,7.67099e-05,0,0,0,0,0,0,0,0,0,-0.000292145,-1.25712e-06,0.000103188,-0.000345876,-0.000304872,-0.000109728,-7.4378e-06,-1.17105e-05,0.000359192,0.000364871,-2.00714e-06,5.06008e-07
1066,0.00051179,0.0710825,0.0664459,-0.0346688,0.0103125,0.0103125,0.0103125,0.0103125,0.0103125,0.0103125,0.0103125,0.0103125,0.0103125,-0.989688,-0.985063,-0.215099,1.41283,0.0710825,0.0664459,-0.0346688,0.00115019,-0.00277607,-0.0420955,-0.00375091,0.0339102,-0.02117,0.0103125,-0.0389257,-0.968644,-0.014251,-0.0196525,-0.712859,0.18059,-0.544004,1.61042,-0.00257327,-0.0885157,-0.000162733,-0.111316,0.0417223,0.0780197,0.689989,0.00115019,-0.00277607,-0.0420955,-0.00375091,0.0339102,-0.02117,0,0,0,0,0,0,0,0,0,-0.000932753,-0.000203589,0.00129011,6.41134e-05,-0.000329221,-0.00146038,-4.63325e-05,-0.000106991,0.000194348,0.00132083,0.000444466,0.000269537
1067,0.00051179,0.0057314,-0.0207443,-0.00466788,0.093351,0.093351,0.093351,0.093351,0.093351,0.093351,0.093351,0.093351,0.093351,-0.843351,0.808737,-0.296342,1.20545,0.0057314,-0.0207443,-0.00466788,-0.015848,0.00255891,-0.0026046,-0.00114834,0.0200367,-0.011189,0.093351,-0.0302739,0.792877,0.0126955,-0.183976,0.003078,-0.035818,0.475835,-0.801686,0.0298041,-0.158463,0.0376334,0.0552954,0.363183,-0.0322041,-0.526462,-0.015848,0.00255891,-0.0026046,-0.00114834,0.0200367,-0.011189,0,0,0,0,0,0,0,0,0,-0.0008118,-0.000160387,-0.000596542,-0.00109168,-0.000170166,0.000749086,0.000213501,0.000463731,0.000298232,0.000707454,0.00011297,-0.000146743
1068,0.00051179,0.00214778,-0.000116609,-0.00616029,0.107718,0.107718,0.107718,0.107718,0.107718,0.107718,0.107718,0.107718,0.107718,-0.857718,0.876806,-0.807235,1.46837,0.00214778,-0.000116609,-0.00616029,-0.00138137,-0.00193655,0.000905249,0.000179544,-0.00218307,0.000885575,0.107718,0.00131811,-0.000199257,-0.000737213,0.00150207,0.000640563,0.000967477,-0.00570596,-0.00258909,-0.00061016,-0.00205437,0.000129862,0.00235586,0.000668908,0.000675853,0.00951039,-0.00138137,-0.00193655,0.000905249,0.000179544,-0.00218307,0.000885575,0,0,0,0,0,0,0,0,0,-0.000512101,-1.54807e-06,-0.000330005,-0.000550979,-0.000295931,0.000303268,-3.38488e-06,0.000115927,0.000289939,0.000569706,-0.000136459,6.57534e-06
1069,0.00051179,-0.0318022,-0.0244567,-0.00400782,0.0831673,0.0831673,0.0831673,0.0831673,0.0831673,0.0831673,0.0831673,0.0831673,0.0831673,-0.833167,0.851774,0.132013,1.1988,-0.0318022,-0.0244567,-0.00400782,-0.00850499,-0.0123551,0.0179976,0.013519,0.0151448,0.0265425,0.0831673,0.813261,6.15106,-0.156653,-0.910061,-0.103131,-0.047435,-4.65203,-6.01613,0.0223802,-0.311952,0.0468652,0.232919,1.24647,-0.231726,4.42312,-0.00850499,-0.0123551,0.0179976,0.013519,0.0151448,0.0265425,0,0,0,0,0,0,0,0,0,-3.82885e-05,0.00329054,-6.13229e-05,-0.000245424,-0.000497902,-0.00162876,-0.00055374,-0.000212014,0.000365898,-4.89495e-05,0.000832114,-0.00175915
1070,0.00051179,0.00753075,-0.00180767,0.00405834,0.0215782,0.0215782,0.0215782,0.0215782,0.0215782,0.0215782,0.0215782,0.0215782,0.0215782,-0.771578,-0.000319632,0.788749,1.10338,0.00753075,-0.00180767,0.00405834,0.00688696,-0.00114048,0.00308984,-0.00868335,0.000566502,0.01023,0.0215782,-2.26349e-05,-0.00781104,0.000185259,-0.00166052,0.000399771,0.000143018,0.00289243,-0.000119484,-0.00094779,-2.17642e-05,-0.000780516,-0.000496656,0.00348995,0.000386126,-0.00645411,0.00688696,-0.00114048,0.00308984,-0.00868335,0.000566502,0.01023,0,0,0,0,0,0,0,0,0,-0.000668213,2.52647e-05,-9.52828e-06,-0.00022141,-0.000336999,-2.39579e-08,-5.72126e-05,1.71107e-05,0.000343367,0.000253739,-1.92508e-05,4.40238e-05
1071,0.00051179,0.00417374,-0.000693292,0.000301717,0.103429,0.103429,0.103429,0.103429,0.103429,0.103429,0.103429,0.103429,0.103429,-0.886365,0.896571,0.763205,1.47376,0.00417374,-0.000693292,0.000301717,-0.00156994,-3.66643e-05,-0.001309,4.63714e-05,0.000447017,0.00377897,0.103429,0.000382677,-0.00397036,0.000537701,-0.00287689,-0.00277043,0.000251368,0.00253475,0.00256704,-0.000329541,0.00166206,-0.000831665,-0.00157494,0.00190812,-0.00132902,-0.00126154,-0.00156994,-3.66643e-05,-0.001309,4.63714e-05,0.000447017,0.00377897,0,0,0,0,0,0,0,0,0,-0.000487439,-7.06653e-06,0.000331331,-0.000489882,-0.000334555,-0.000326321,-2.54606e-06,4.41741e-05,0.000287719,0.000479306,-4.80206e-05,1.11195e-05
1072,0.00051179,0.00215772,-0.00254723,-0.00541819,0.0406333,0.0406333,0.0406333,0.0406333,0.0406333,0.0406333,0.0406333,0.0406333,0.0406333,-0.804389,-0.959367,-0.949007,1.571,0.00215772,-0.00254723,-0.00541819,-0.00581842,0.0012469,0.00213464,-0.00265051,-0.00176988,-0.00069075,0.0406333,0.0011877,-0.00723039,-0.000309162,0.00225502,-0.00179775,0.000290971,-0.00529171,0.00687042,-0.000411781,0.000721758,0.000335989,-0.00440355,-0.000429548,3.98718e-05,0.0151135,-0.00581842,0.0012469,0.00213464,-0.00265051,-0.00176988,-0.00069075,0,0,0,0,0,0,0,0,0,-0.00047604,-1.35261e-05,0.000297124,-0.000493114,-0.000304902,-0.000287746,-5.68389e-06,-0.000140666,0.000329703,0.00051737,0.000126328,6.37318e-06
1073,0.00051179,0.00282055,0.00593129,0.0159855,0.0411228,0.0411228,0.0411228,0.0411228,0.0411228,0.0411228,0.0411228,0.0411228,0.0411228,-0.958877,0.464535,-0.00520101,1.06549,0.00282055,0.00593129,0.0159855,0.00169246,-0.00524303,-0.0296198,-0.00272218,0.0123199,-0.012724,0.0411228,-0.00822227,-0.43834,-0.00937205,0.0125333,0.0522946,0.188024,1.35367,0.383225,0.0162943,0.017245,0.0279337,-0.253886,-0.0357096,0.011654,-1.11577,0.00169246,-0.00524303,-0.0296198,-0.00272218,0.0123199,-0.012724,0,0,0,0,0,0,0,0,0,-0.000587784,-3.95402e-05,-0.000122824,0.00116519,-0.000299955,-2.33264e-05,6.09696e-05,0.000242433,0.000448726,0.000418851,0.000160103,-1.22411e-05
1074,0.00051179,0.00592996,0.00126716,0.000420783,0.0215456,0.0215456,0.0215456,0.0215456,0.0215456,0.0215456,0.0215456,0.0215456,0.0215456,-0.978454,-0.448131,0.719905,1.29478,0.00592996,0.00126716,0.000420783,0.00427182,-0.00198205,-0.00216564,0.0129445,0.00522813,-0.000194254,0.0215456,0.00180645,-0.0224595,0.000615545,0.00156967,-0.00211081,-0.00289478,0.0348336,0.0186403,0.00342877,0.00385014,-0.000651341,0.00279179,-0.00668697,0.00362396,-0.0380462,0.00427182,-0.00198205,-0.00216564,0.0129445,0.00522813,-0.000194254,0,0,0,0,0,0,0,0,0,-0.000590764,5.28325e-07,-0.000256907,-0.000255985,-0.000362242,0.000243242,5.20035e-05,3.91032e-05,0.00030525,0.00020538,6.66473e-06,-1.27145e-05
1075,0.00051179,0.00274006,0.0110546,0.00723401,0.0444124,0.0444124,0.0444124,0.0444124,0.0444124,0.0444124,0.0444124,0.0444124,0.0444124,-0.794412,-0.384667,-0.385834,0.96329,0.00274006,0.0110546,0.00723401,-0.0132198,-0.000273217,0.00524042,0.00539926,0.00908419,0.00430776,0.0444124,-0.0023071,0.0818105,-0.000150554,-0.00399411,0.000527086,-0.00513106,0.195746,-0.0850777,0.0274999,0.00661644,-0.00766476,0.00442157,-0.0136769,-0.0181218,-0.207402,-0.0132198,-0.000273217,0.00524042,0.00539926,0.00908419,0.00430776,0,0,0,0,0,0,0,0,0,-0.000531964,-8.17399e-05,0.000286672,-0.000526476,-0.000355357,-0.00029091,0.00016039,-1.17332e-05,0.000366375,0.000527569,2.59274e-05,-7.31758e-05
1076,0.00051179,-0.00617399,0.00586583,0.00573322,0.0651475,0.0651475,0.0651475,0.0651475,0.0651475,0.0651475,0.0651475,0.0651475,0.0651475,-0.876454,0.934853,-0.640057,1.43241,-0.00617399,0.00586583,0.00573322,-0.00591201,-0.004528,-0.00170229,0.000379215,-0.00146553,-0.00351139,0.0651475,0.00120242,0.00449651,-0.00104671,0.00342347,0.00287861,0.000790771,-0.00707652,-0.00120113,-0.0002452,-0.0124139,0.000720782,0.00153627,0.00312457,0.00163938,-0.000192967,-0.00591201,-0.004528,-0.00170229,0.000379215,-0.00146553,-0.00351139,0,0,0,0,0,0,0,0,0,-0.000633843,-1.61084e-05,-0.000432031,-0.000645616,-0.000280345,0.000376284,8.1096e-06,0.000154205,0.000271074,0.000636501,-0.000161652,-1.92053e-06
1077,0.00051179,2.87088e-05,-0.00311717,0.00315005,0.0651905,0.0651905,0.0651905,0.0651905,0.0651905,0.0651905,0.0651905,0.0651905,0.0651905,-0.81519,0.103639,0.710545,1.08635,2.87088e-05,-0.00311717,0.00315005,0.00255114,-0.00169009,-4.26415e-05,-0.00313463,0.00132291,0.00803055,0.0651905,2.98768e-05,-0.00210606,0.000327118,0.00234717,0.000537358,6.57178e-05,0.00484155,0.00153999,-0.00189214,0.000323251,-0.00104488,-0.00110612,0.000446756,0.000736207,-0.00688548,0.00255114,-0.00169009,-4.26415e-05,-0.00313463,0.00132291,0.00803055,0,0,0,0,0,0,0,0,0,-0.00064972,5.61161e-06,5.54183e-05,-0.000214794,-0.000341529,-6.9048e-05,-3.24273e-05,1.38819e-05,0.000328891,0.000215025,-1.11016e-05,3.65403e-05
1078,0.00051179,-0.00122896,0.00241236,-0.00919108,0.057393,0.057393,0.057393,0.057393,0.057393,0.057393,0.057393,0.057393,0.057393,-0.815404,0.401774,-0.942607,1.30951,-0.00122896,0.00241236,-0.00919108,-0.00543671,0.00187725,0.00064693,-0.00095085,0.000599443,-0.0017385,0.057393,0.00112154,-0.0027308,-0.000294589,0.00283978,-4.42474e-06,0.000934847,-0.00212037,0.00396418,-0.00020908,-0.000800126,3.481e-05,0.000732004,-0.00445201,-0.000626389,0.0105794,-0.00543671,0.00187725,0.00064693,-0.00095085,0.000599443,-0.0017385,0,0,0,0,0,0,0,0,0,-0.000330307,-1.25297e-05,-0.00016487,-0.000381392,-0.000298733,0.000180697,3.2465e-06,6.11642e-05,0.000353076,0.00039721,-5.48216e-05,-2.77831e-06
1079,0.00051179,0.0034766,0.00669649,-0.00763914,0.00857198,0.00857198,0.00857198,0.00857198,0.00857198,0.00857198,0.00857198,0.00857198,0.00857198,-0.758572,0.218682,0.754847,1.09227,0.0034766,0.00669649,-0.00763914,0.0101282,0.00213144,0.00415247,-0.00435082,0.00359321,0.012084,0.00857198,-0.000160977,-0.000963354,0.000142522,-0.0085379,-0.000468242,0.000471443,0.0121541,-0.00204501,-0.00141294,-0.000508157,-0.000979233,-0.000401889,0.00234957,0.000348024,-0.00411305,0.0101282,0.00213144,0.00415247,-0.00435082,0.00359321,0.012084,0,0,0,0,0,0,0,0,0,-0.000649191,3.06414e-05,0.000106656,-0.000236559,-0.000349635,-8.39165e-05,-4.80136e-05,2.45049e-05,0.000344239,0.000282798,1.63493e-06,4.29652e-05
1080,0.00051179,0.00159775,-0.00156233,0.000857672,0.0460309,0.0460309,0.0460309,0.0460309,0.0460309,0.0460309,0.0460309,0.0460309,0.0460309,-0.910718,-0.570714,0.953969,1.43707,0.00159775,-0.00156233,0.000857672,-0.00205799,0.00101649,-0.00389664,0.00610921,0.000464034,0.00589017,0.0460309,0.00111546,-0.000338651,-0.000213765,-0.00146669,-0.000209718,0.000470504,0.000439389,-0.00104938,-0.000425758,0.000506471,-0.000169327,0.000682829,0.00252255,-0.00149333,-0.00197989,-0.00205799,0.00101649,-0.00389664,0.00610921,0.000464034,0.00589017,0,0,0,0,0,0,0,0,0,-0.000630938,-1.52562e-05,-0.00023273,-0.000348512,-0.000345523,0.000240757,1.78737e-05,-8.24226e-06,0.000322282,0.000314251,1.11893e-05,1.14406e-05
1081,0.00051179,0.002339,-0.00167337,-0.000452267,0.0870178,0.0870178,0.0870178,0.0870178,0.0870178,0.0870178,0.0870178,0.0870178,0.0870178,-0.837018,-0.0146316,0.634081,1.05018,0.002339,-0.00167337,-0.000452267,-0.00292646,-0.00188663,-0.000565508,-0.00152931,-0.000642118,0.00422469,0.0870178,0.000775531,-0.0100815,0.000164934,0.00510384,0.000338903,-0.000536323,0.0151254,0.00740361,-0.00346543,-0.000812021,-0.000832221,-0.000645661,-0.00261845,0.00179698,-0.0140275,-0.00292646,-0.00188663,-0.000565508,-0.00152931,-0.000642118,0.00422469,0,0,0,0,0,0,0,0,0,-0.000636451,-9.4577e-06,-1.57132e-05,-0.000201693,-0.000338072,-1.50372e-06,-2.36768e-05,1.29907e-05,0.000324026,0.000190675,-2.77341e-05,3.14053e-05
1082,0.00051179,0.0337333,-0.00477005,0.017396,0.114873,0.114873,0.114873,0.114873,0.114873,0.114873,0.114873,0.114873,0.114873,-0.864873,0.0367846,-0.177923,0.88375,0.0337333,-0.00477005,0.017396,-0.00561907,0.00126598,0.00314015,-0.00278401,0.0018393,0.00426805,0.114873,-0.11719,-0.154684,-0.022033,-0.00620438,-0.347392,-0.047527,-0.596075,0.468342,-0.0766122,0.00177533,-0.0158349,-0.140323,0.0091991,0.00798436,0.719002,-0.00561907,0.00126598,0.00314015,-0.00278401,0.0018393,0.00426805,0,0,0,0,0,0,0,0,0,-0.000595637,-0.000394868,-0.000108876,-0.000466859,-0.000335211,-9.8794e-05,-0.000177805,-8.43861e-05,0.000345856,2.29905e-05,-5.55702e-05,0.000280438
1083,0.00051179,-0.032331,-0.00583833,-0.0244739,0.0591973,0.0591973,0.0591973,0.0591973,0.0591973,0.0591973,0.0591973,0.0591973,0.0591973,-0.940803,-0.892915,-0.110345,1.30176,-0.032331,-0.00583833,-0.0244739,0.0197726,0.0161207,0.0147702,-0.0111836,-0.00334365,-0.000507355,0.0591973,-0.334461,-2.78234,-0.0856731,-0.529385,-0.298491,0.269094,-0.164266,3.11316,-0.00117506,-0.00823805,0.0229745,0.0707352,0.543462,0.15078,0.118005,0.0197726,0.0161207,0.0147702,-0.0111836,-0.00334365,-0.000507355,0,0,0,0,0,0,0,0,0,-0.000803076,-0.00136947,0.000487752,0.00148382,-0.000414396,-0.00118328,0.000142177,2.60026e-05,0.000360072,0.00135482,0.000170306,0.000955334
1084,0.00051179,0.00703529,-0.00445489,0.00527892,0.018229,0.018229,0.018229,0.018229,0.018229,0.018229,0.018229,0.018229,0.018229,-0.773491,-0.815294,0.981771,1.49227,0.00703529,-0.00445489,0.00527892,0.00414692,-0.00169745,0.000941467,0.00280597,-0.00551851,0.00870435,0.018229,0.000789836,-0.00410396,-0.000531159,0.00127168,0.000546534,0.000247627,-0.00177708,-0.00347786,-0.00152487,-0.000774108,-0.000207347,-0.000288772,0.00395731,-0.00102101,-0.00321307,0.00414692,-0.00169745,0.000941467,0.00280597,-0.00551851,0.00870435,0,0,0,0,0,0,0,0,0,-0.000578389,8.64392e-06,-0.000290383,-0.000428856,-0.000308866,0.000268097,-9.63433e-06,-4.6113e-05,0.000374645,0.000440747,-1.11456e-05,2.23769e-05
1085,0.00051179,0.0150311,0.00223643,0.0150276,0.00993842,0.00993842,0.00993842,0.00993842,0.00993842,0.00993842,0.00993842,0.00993842,0.00993842,-0.990062,-0.942199,0.425602,1.43147,0.0150311,0.00223643,0.0150276,-0.00482895,-0.00269078,-0.00903187,-0.00464347,0.0289572,0.0185462,0.00993842,-0.0122227,0.0552781,0.00878001,-0.0657604,0.0822241,0.00904443,0.0505134,-0.152533,6.10482e-05,0.0310571,-0.00498517,-0.0691805,0.0324669,-0.00291296,0.00363953,-0.00482895,-0.00269078,-0.00903187,-0.00464347,0.0289572,0.0185462,0,0,0,0,0,0,0,0,0,-0.000247933,-7.83342e-05,-0.000775667,-0.00059384,-0.000401163,0.000836559,-1.59881e-05,2.17549e-05,0.000250928,0.000593965,0.000217966,8.50903e-05
1086,0.00051179,0.0242556,0.0120978,0.0418738,0.0602306,0.0602306,0.0602306,0.0602306,0.0602306,0.0602306,0.0602306,0.0602306,0.0602306,-0.939769,-0.425768,-0.149826,1.04254,0.0242556,0.0120978,0.0418738,0.0059101,-0.019666,0.00628665,-0.0113422,-0.0158493,-0.00514293,0.0602306,-0.432391,-2.12807,0.0686555,0.592729,0.243148,-0.0775369,-0.82684,1.86066,-0.079035,-0.000479997,-0.00431858,-0.0552754,-0.604347,0.0551078,0.840241,0.0059101,-0.019666,0.00628665,-0.0113422,-0.0158493,-0.00514293,0,0,0,0,0,0,0,0,0,-0.000676669,-0.00159368,0.000400862,-0.00029783,-0.00031733,8.90331e-05,8.68365e-05,-0.00014993,0.00038287,-0.000414673,-5.17493e-05,0.000788547
1087,0.00051179,0.0102423,0.0013771,0.000502519,0.0571055,0.0571055,0.0571055,0.0571055,0.0571055,0.0571055,0.0571055,0.0571055,0.0571055,-0.942895,-0.926073,-0.883209,1.58957,0.0102423,0.0013771,0.000502519,-0.00448364,0.0011117,0.00215198,-0.00283706,0.00208805,-0.000658634,0.0571055,0.00244422,-0.0154367,-0.000818424,0.00186246,-0.00250624,0.000864342,-0.00110364,0.00770062,-0.000674503,-0.00373458,-0.000294914,-0.00244468,0.000495022,-0.00133306,0.0030458,-0.00448364,0.0011117,0.00215198,-0.00283706,0.00208805,-0.000658634,0,0,0,0,0,0,0,0,0,-0.000499018,-1.49401e-06,0.000302782,-0.000510467,-0.000272924,-0.000299849,-8.85474e-06,-0.000101075,0.000262052,0.00054063,0.000119006,-1.25538e-06
1088,0.00051179,0.00629422,-0.00926331,0.00371346,0.0538878,0.0538878,0.0538878,0.0538878,0.0538878,0.0538878,0.0538878,0.0538878,0.0538878,-0.946112,-0.927365,0.607427,1.45743,0.00629422,-0.00926331,0.00371346,-0.00136335,-0.000406139,-0.00447942,0.00147536,0.00794363,0.0135871,0.0538878,0.001655,-0.00209054,0.000805624,-0.0135628,0.00518606,-0.00134056,0.0112406,-0.00938974,0.0005628,0.0173252,-0.000446479,-0.0160474,0.00550094,-0.00024648,0.00109335,-0.00136335,-0.000406139,-0.00447942,0.00147536,0.00794363,0.0135871,0,0,0,0,0,0,0,0,0,-0.00036373,-1.6623e-05,-0.000512863,-0.000524702,-0.000368232,0.000516858,-7.89046e-06,2.13803e-05,0.000288531,0.000466502,5.35912e-05,4.86218e-05
1089,0.00051179,-0.0119006,0.0162498,-0.00497311,0.0249933,0.0249933,0.0249933,0.0249933,0.0249933,0.0249933,0.0249933,0.0249933,0.0249933,-0.873963,0.975007,-0.294246,1.34202,-0.0119006,0.0162498,-0.00497311,0.00334076,-0.0129893,-0.0496558,-0.00352357,0.00670911,-0.0138795,0.0249933,-0.000233576,0.0485653,0.00666518,-0.0703857,-0.183967,0.0401835,-0.221836,0.147302,0.00125931,-0.0874312,0.0130872,-0.403405,0.141567,0.0712029,0.630214,0.00334076,-0.0129893,-0.0496558,-0.00352357,0.00670911,-0.0138795,0,0,0,0,0,0,0,0,0,-0.00092914,-5.15791e-05,-0.000906851,-0.00101438,-0.000184352,0.00084361,-7.84363e-05,0.000476651,0.000270054,0.000919653,-0.000278688,0.000219502
1090,0.00051179,0.0257623,-0.0134621,-0.0130822,0.0439259,0.0439259,0.0439259,0.0439259,0.0439259,0.0439259,0.0439259,0.0439259,0.0439259,-0.956074,-0.548437,0.25921,1.13228,0.0257623,-0.0134621,-0.0130822,-0.00044271,0.00647701,0.0209777,0.000492472,0.00104992,-0.0127892,0.0439259,0.23914,-0.319346,0.00205255,-0.1357,-0.181116,-0.11614,-0.484986,0.4747,0.0478397,0.158663,0.0154896,0.135045,-0.00950053,0.027764,0.363024,-0.00044271,0.00647701,0.0209777,0.000492472,0.00104992,-0.0127892,0,0,0,0,0,0,0,0,0,-0.000426292,0.000845018,-0.000426083,-0.000336056,-0.000393564,0.000511379,-0.000106805,0.000136113,0.000323378,-0.000615568,2.92813e-05,-0.000273592
1091,0.00051179,-0.0196269,0.0148768,0.0255749,0.0274523,0.0274523,0.0274523,0.0274523,0.0274523,0.0274523,0.0274523,0.0274523,0.0274523,-0.972548,-0.400824,-0.144209,1.06175,-0.0196269,0.0148768,0.0255749,0.0183155,-0.0298012,0.000597434,-0.0182854,-0.0166039,-0.0145262,0.0274523,-0.346964,-1.68134,0.0580525,0.474842,0.193328,-0.0438213,-0.413099,1.50764,-0.067873,0.00130607,-0.0176751,-0.0600233,-0.491025,0.0465535,0.447547,0.0183155,-0.0298012,0.000597434,-0.0182854,-0.0166039,-0.0145262,0,0,0,0,0,0,0,0,0,-0.00062377,-0.00120158,0.000279089,-0.000232244,-0.000318939,3.42333e-06,1.08773e-05,-0.000217792,0.00039465,-0.000199994,-0.000124998,0.000601806
1092,0.00051179,0.00156917,0.00483453,-0.00762885,0.0592341,0.0592341,0.0592341,0.0592341,0.0592341,0.0592341,0.0592341,0.0592341,0.0592341,-0.809234,0.418199,-0.770395,1.193,0.00156917,0.00483453,-0.00762885,-0.00664234,0.000299288,0.00173042,0.00621001,0.0033575,-0.00280154,0.0592341,0.000322536,0.0063374,-0.000713758,0.00541336,0.000544815,3.05511e-05,0.00315453,-0.00845138,0.00204761,-0.00359136,-0.000863382,0.000587163,-0.00665652,0.000938106,0.00388716,-0.00664234,0.000299288,0.00173042,0.00621001,0.0033575,-0.00280154,0,0,0,0,0,0,0,0,0,-0.000397235,-3.16848e-05,-0.000212983,-0.000369497,-0.000285113,0.000208838,4.12023e-05,7.57866e-05,0.000354029,0.000387107,-5.08454e-05,-9.40301e-06
1093,0.00051179,-0.0317384,0.00838113,0.0108915,0.0181551,0.0181551,0.0181551,0.0181551,0.0181551,0.0181551,0.0181551,0.0181551,0.0181551,-0.981845,0.220668,0.142477,1.01637,-0.0317384,0.00838113,0.0108915,0.00374641,-0.0149494,0.0151954,0.00630267,0.0224492,0.033829,0.0181551,0.168405,0.760122,0.0440594,0.278275,0.0809063,0.0111758,-0.125132,-0.80929,0.0893283,0.00133379,-0.00573548,-0.00593665,-0.28799,-0.0442787,0.120177,0.00374641,-0.0149494,0.0151954,0.00630267,0.0224492,0.033829,0,0,0,0,0,0,0,0,0,-0.000514247,0.000563837,9.55826e-05,0.00019544,-0.00030374,0.000195518,0.000181232,3.59856e-05,0.000337727,6.82713e-05,0.000131151,-0.000349171
1094,0.00051179,0.0372771,0.0108558,-0.0683109,0.00789415,0.00789415,0.00789415,0.00789415,0.00789415,0.00789415,0.00789415,0.00789415,0.00789415,-0.757894,0.728452,0.25356,1.08136,0.0372771,0.0108558,-0.0683109,0.0499486,-0.0118518,0.0361471,-0.0378431,0.0368103,0.0133265,0.00789415,0.000410095,-0.123966,-0.000791602,0.185062,0.00378524,-0.00246698,0.807304,0.0829038,-0.0414025,0.101454,0.0335028,0.158714,-0.297371,0.0668934,-0.897708,0.0499486,-0.0118518,0.0361471,-0.0378431,0.0368103,0.0133265,0,0,0,0,0,0,0,0,0,-0.000245295,0.000192563,0.000477455,-0.00164873,-0.00046652,-0.000603889,-0.000455459,0.000434842,0.000336535,0.00198554,0.000268289,0.000341869
1095,0.00051179,0.100734,-0.0371952,0.0318156,0.0130779,0.0130779,0.0130779,0.0130779,0.0130779,0.0130779,0.0130779,0.0130779,0.0130779,-0.736922,0.855632,-0.0264806,1.12954,0.100734,-0.0371952,0.0318156,0.0604951,-0.0149263,-0.191362,-0.0306236,-0.0448003,-0.0373453,0.0130779,-1.06652,-8.87464,0.131674,0.878828,0.442842,1.30724,0.813888,8.33106,-0.0500416,0.846858,-0.165138,-0.0630748,-1.68849,0.0466818,-0.782629,0.0604951,-0.0149263,-0.191362,-0.0306236,-0.0448003,-0.0373453,0,0,0,0,0,0,0,0,0,-0.00101878,-0.00378701,0.000115066,0.0152747,-0.000155533,0.00105241,0.00083977,-0.00545039,0.000559546,-0.00411595,0.00335101,0.00128978
1096,0.00051179,0.00892659,-0.00933561,0.00704315,0.0421047,0.0421047,0.0421047,0.0421047,0.0421047,0.0421047,0.0421047,0.0421047,0.0421047,-0.792105,-0.124819,-0.536267,0.964672,0.00892659,-0.00933561,0.00704315,-0.00841631,0.000937102,0.00522577,-0.000764055,-0.000438693,0.0034897,0.0421047,0.000360325,-0.00506488,-0.000755899,0.0113063,0.000473707,-0.000724852,0.0253067,-0.00433542,0.0218497,0.014623,-0.00544407,0.000851313,-0.0165937,-0.00345618,-0.0332012,-0.00841631,0.000937102,0.00522577,-0.000764055,-0.000438693,0.0034897,0,0,0,0,0,0,0,0,0,-0.000429206,-5.53528e-05,7.27243e-05,-0.000328133,-0.000322724,-7.09122e-05,9.03555e-05,-5.03943e-05,0.000373252,0.000373142,-8.43335e-06,-1.49054e-05
1097,0.00051179,-0.062102,-0.0354811,-0.0443885,0.0346051,0.0346051,0.0346051,0.0346051,0.0346051,0.0346051,0.0346051,0.0346051,0.0346051,-0.930583,0.965395,-0.0246671,1.34111,-0.062102,-0.0354811,-0.0443885,-0.00810234,-0.00888599,-0.00393319,-0.018381,-0.0160639,0.0057517,0.0346051,-0.152189,-1.25255,0.00614602,0.115785,-0.179559,0.659827,2.33049,1.49421,0.00199203,-0.0380734,-0.0261065,0.687815,-0.0422301,0.0893407,-2.97392,-0.00810234,-0.00888599,-0.00393319,-0.018381,-0.0160639,0.0057517,0,0,0,0,0,0,0,0,0,-0.000657298,-0.000707316,-0.000252706,0.00355545,-0.000259781,0.000225306,1.21948e-05,-0.000936192,0.000432529,0.00300349,0.000514488,0.000569601
1098,0.00051179,0.0147255,0.0192887,0.0159347,0.0158256,0.0158256,0.0158256,0.0158256,0.0158256,0.0158256,0.0158256,0.0158256,0.0158256,-0.765826,0.526796,-0.602396,1.10765,0.0147255,0.0192887,0.0159347,-0.00675223,-0.0075358,0.00712712,0.0181469,0.0121021,0.00603975,0.0158256,0.000432923,-0.0121022,-0.000386529,0.0176016,0.000748757,-8.59536e-05,0.0179712,-0.00337203,0.0118867,-0.0242783,-0.00331307,0.00184068,-0.012612,-0.00261338,-0.0357466,-0.00675223,-0.0075358,0.00712712,0.0181469,0.0121021,0.00603975,0,0,0,0,0,0,0,0,0,-0.000491634,-6.29127e-05,-0.000318035,-0.00038958,-0.000250334,0.000238812,0.000118852,0.000130111,0.000363998,0.000459991,-4.22213e-05,-1.41843e-05
1099,0.00051179,0.158004,-0.022696,-0.0417089,0.0436378,0.0436378,0.0436378,0.0436378,0.0436378,0.0436378,0.0436378,0.0436378,0.0436378,-0.662574,0.741629,0.0563622,0.99609,0.158004,-0.022696,-0.0417089,-0.0160505,0.00423885,-0.0216322,0.0365436,-0.0163525,-0.0124413,0.0436378,3.93154,18.1833,-0.117,1.07289,-3.40784,0.183808,-4.0158,-14.9335,0.585734,-1.90007,-0.0124423,-1.21875,0.849879,0.418667,5.27625,-0.0160505,0.00423885,-0.0216322,0.0365436,-0.0163525,-0.0124413,0,0,0,0,0,0,0,0,0,0.00111227,0.0138728,-0.000171405,0.028205,-0.000493014,-0.000956211,-0.00259322,-0.0031612,-0.000889823,-0.0265832,0.00287326,-0.00367348
1100,0.00051179,0.00541442,-0.0034715,-0.00651265,0.0578927,0.0578927,0.0578927,0.0578927,0.0578927,0.0578927,0.0578927,0.0578927,0.0578927,-0.942107,-0.0520169,0.48165,1.05937,0.00541442,-0.0034715,-0.00651265,-0.00368428,-7.15447e-05,0.00146763,0.00585428,-0.00274145,0.00318633,0.0578927,0.00902481,-0.0817787,-0.000817947,-0.00982611,0.00214801,-0.0104976,0.0691196,0.0742162,0.0190669,0.00161629,0.00245503,-0.00877615,0.0116813,0.0122363,-0.0538308,-0.00368428,-7.15447e-05,0.00146763,0.00585428,-0.00274145,0.00318633,0,0,0,0,0,0,0,0,0,-0.000601053,-2.60101e-05,-3.5581e-05,-0.000239088,-0.000345552,2.66861e-05,7.18932e-05,3.10234e-05,0.000302576,0.000148789,-3.38876e-05,2.44005e-05
1101,0.00051179,0.0144925,-0.000462237,-0.00981023,0.005632,0.005632,0.005632,0.005632,0.005632,0.005632,0.005632,0.005632,0.005632,-0.755632,-0.387376,-0.941572,1.26791,0.0144925,-0.000462237,-0.00981023,-0.0142075,0.00816742,9.75803e-05,-0.000583081,-0.00375957,-0.00649813,0.005632,0.000595346,-0.0168659,-0.000147812,0.00274266,-5.95642e-05,0.000845551,-0.00154386,0.00243293,0.00117755,0.00391687,6.24163e-05,-0.00136669,-0.0061973,0.000288706,0.0127208,-0.0142075,0.00816742,9.75803e-05,-0.000583081,-0.00375957,-0.00649813,0,0,0,0,0,0,0,0,0,-0.00033439,-4.58756e-05,0.000178191,-0.000361029,-0.000320161,-9.79948e-05,2.51575e-05,-5.58884e-05,0.000392146,0.000370461,1.89169e-05,-8.86199e-06
1102,0.00051179,0.00315775,0.00724247,-0.00347613,0.0796712,0.0796712,0.0796712,0.0796712,0.0796712,0.0796712,0.0796712,0.0796712,0.0796712,-0.829671,0.393492,-0.59721,1.09538,0.00315775,0.00724247,-0.00347613,-0.0062348,0.00130488,0.00466865,0.00530321,0.00186844,-0.00340029,0.0796712,0.000754073,0.006597,-0.00108903,0.0122293,0.0014076,-0.0017165,0.0326753,-0.0111624,0.0122125,-0.00686824,-0.00225735,0.00531322,-0.0126035,-0.00115068,-0.0345124,-0.0062348,0.00130488,0.00466865,0.00530321,0.00186844,-0.00340029,0,0,0,0,0,0,0,0,0,-0.000452735,-3.6039e-05,-0.00024517,-0.000343032,-0.000279898,0.000247329,7.89431e-05,4.88403e-05,0.000344001,0.000372553,-5.27294e-05,-3.13902e-05
1103,0.00051179,0.0564449,-0.0187574,-0.0211926,0.0222412,0.0222412,0.0222412,0.0222412,0.0222412,0.0222412,0.0222412,0.0222412,0.0222412,-0.772241,-0.430288,0.227472,0.912824,0.0564449,-0.0187574,-0.0211926,-0.0252837,-0.00573397,-0.0410156,0.00110064,0.0442334,0.0152181,0.0222412,0.0160132,-1.30855,0.00134421,0.117159,-0.0235809,-0.0384015,2.55146,1.27569,-0.0420314,0.286257,0.0214398,0.121568,-0.384658,0.133136,-2.65183,-0.0252837,-0.00573397,-0.0410156,0.00110064,0.0442334,0.0152181,0,0,0,0,0,0,0,0,0,-0.000352591,-0.000159606,-0.000628192,-0.00210241,-0.000352765,0.000584295,-0.000317907,0.000588536,0.000312507,0.00130824,6.81954e-05,0.000628518
1104,0.00051179,-0.00109914,-0.00920528,0.00973356,0.0472948,0.0472948,0.0472948,0.0472948,0.0472948,0.0472948,0.0472948,0.0472948,0.0472948,-0.797295,-0.120299,0.285712,0.855443,-0.00109914,-0.00920528,0.00973356,0.00296876,0.000635048,-0.0058144,0.00428106,0.0171865,-0.00644482,0.0472948,0.00248386,-0.179837,-0.000169627,0.0336538,0.00688036,-0.0112614,0.356797,0.174056,0.0272127,0.105558,0.00550472,-0.0636206,-0.130006,0.0240981,-0.30291,0.00296876,0.000635048,-0.0058144,0.00428106,0.0171865,-0.00644482,0,0,0,0,0,0,0,0,0,-0.00053326,-3.57364e-05,-0.000131341,-0.000490533,-0.000360483,0.000135995,9.44691e-05,0.000207757,0.000328377,0.000319774,1.91549e-05,2.52668e-05
1105,0.00051179,0.0257072,-0.042263,0.00960922,0.0612658,0.0612658,0.0612658,0.0612658,0.0612658,0.0612658,0.0612658,0.0612658,0.0612658,-0.811266,0.431664,-0.10104,0.924497,0.0257072,-0.042263,0.00960922,-0.0175467,0.0103199,0.0339699,-0.000490099,-0.00119543,-0.0151352,0.0612658,-1.10804,-10.5454,-0.226885,-2.11572,0.480828,-0.0878528,-3.76914,10.0388,-0.224875,-0.0516188,-0.0331287,-0.0537622,2.2096,0.0726031,3.81329,-0.0175467,0.0103199,0.0339699,-0.000490099,-0.00119543,-0.0151352,0,0,0,0,0,0,0,0,0,-0.00102172,-0.00413544,-0.00126949,0.000988058,-0.000386083,-0.000896164,0.000365653,-0.000183296,0.000315383,-0.00152689,-0.000159945,0.00177982
1106,0.00051179,0.142851,0.047981,0.0105615,0.0671667,0.0671667,0.0671667,0.0671667,0.0671667,0.0671667,0.0671667,0.0671667,0.0671667,-0.659625,0.892339,0.0328333,1.11016,0.142851,0.047981,0.0105615,0.0103265,-0.00234702,-0.00915003,0.037705,-0.0225506,0.0115901,0.0671667,2.09337,10.1444,-0.247626,0.0559834,0.228094,1.04719,-5.93784,-10.5154,0.09577,-1.52958,-0.172782,0.240596,1.42561,0.159711,5.68668,0.0103265,-0.00234702,-0.00915003,0.037705,-0.0225506,0.0115901,0,0,0,0,0,0,0,0,0,0.000396706,0.00773947,-0.000206977,0.0294001,-0.000695521,-0.00229276,-0.00211163,-0.0117201,-6.64592e-06,-0.0190196,0.00976676,-0.0019225
1107,0.00051179,-0.00790952,2.1281e-05,-0.00409738,0.0169973,0.0169973,0.0169973,0.0169973,0.0169973,0.0169973,0.0169973,0.0169973,0.0169973,-0.898057,-0.0775513,-0.983003,1.33372,-0.00790952,2.1281e-05,-0.00409738,-0.00739929,-0.00165987,0.00204127,-0.00694167,-0.00142314,0.00114888,0.0169973,0.00206305,-0.00910279,-0.000198089,0.00155396,0.000148709,0.000482794,0.00110312,0.0168636,-0.00147967,0.000492511,7.93161e-05,1.23474e-05,-0.00206776,-0.00144451,0.00298191,-0.00739929,-0.00165987,0.00204127,-0.00694167,-0.00142314,0.00114888,0,0,0,0,0,0,0,0,0,-0.00028237,-1.04659e-05,3.923e-05,-0.00033626,-0.000302905,-5.78096e-05,-2.58915e-05,1.77179e-06,0.000340745,0.000361501,-1.521e-05,1.47371e-05
1108,0.00051179,-0.00457287,-0.00797531,-0.00961125,0.0335396,0.0335396,0.0335396,0.0335396,0.0335396,0.0335396,0.0335396,0.0335396,0.0335396,-0.96646,0.807502,-0.225545,1.27944,-0.00457287,-0.00797531,-0.00961125,-0.000662472,-0.00434035,0.026364,-0.0153307,-0.0412118,-0.00157811,0.0335396,-0.19516,-0.702185,0.0431153,0.0660774,0.121438,-0.0203701,-0.763281,0.58532,-0.0148001,0.0992321,0.0117315,0.09066,-0.157334,0.0224184,0.682232,-0.000662472,-0.00434035,0.026364,-0.0153307,-0.0412118,-0.00157811,0,0,0,0,0,0,0,0,0,-0.000806347,-0.000742442,-0.000719232,-0.000205031,-0.000262016,0.00110698,8.60142e-05,6.54108e-05,0.000260763,0.000264971,-0.000360213,0.00034087
1109,0.00051179,0.000387509,-0.00435954,0.00494777,0.105688,0.105688,0.105688,0.105688,0.105688,0.105688,0.105688,0.105688,0.105688,-0.894312,0.674753,-0.704082,1.32318,0.000387509,-0.00435954,0.00494777,-0.00440513,-0.00203827,0.000552591,-0.00150941,-0.00253702,-0.000713295,0.105688,0.00035955,0.0100169,-0.00141429,0.012541,0.00114047,-0.000190023,-0.00630084,-0.0115449,0.000967307,-0.00755532,2.01399e-05,0.00259671,-0.000626118,-3.86052e-05,-0.00124364,-0.00440513,-0.00203827,0.000552591,-0.00150941,-0.00253702,-0.000713295,0,0,0,0,0,0,0,0,0,-0.000494502,-1.40669e-05,-0.000350677,-0.000466057,-0.000296379,0.000316151,3.45056e-06,9.676e-05,0.000298537,0.000469682,-0.000121929,2.40155e-06
1110,0.00051179,-0.0202336,-0.0160408,0.00520802,0.0426934,0.0426934,0.0426934,0.0426934,0.0426934,0.0426934,0.0426934,0.0426934,0.0426934,-0.87623,0.957307,-0.221724,1.31658,-0.0202336,-0.0160408,0.00520802,-0.00918793,-0.0106725,-0.036873,-0.0065143,0.0257981,0.000689864,0.0426934,-0.0947138,0.0918976,0.0306869,-0.0512617,-0.50549,0.0403063,-1.06812,0.433826,-0.00201895,0.0157081,0.0282854,-0.487505,0.0515944,0.123989,1.55042,-0.00918793,-0.0106725,-0.036873,-0.0065143,0.0257981,0.000689864,0,0,0,0,0,0,0,0,0,-0.000984319,-0.000533636,-0.00100589,-0.000900617,-0.000146979,0.00120603,-5.67941e-05,0.000545149,0.000298701,0.000934951,-4.31286e-06,0.000609268
1111,0.00051179,-0.00464776,-0.0032086,0.00498814,0.076602,0.076602,0.076602,0.076602,0.076602,0.076602,0.076602,0.076602,0.076602,-0.826602,0.61996,0.579683,1.18476,-0.00464776,-0.0032086,0.00498814,-0.00199224,-0.002507,-0.000408769,-0.00599057,0.00788928,0.00919216,0.076602,0.000814036,-0.020057,-0.000126474,0.0105351,-5.77925e-05,-0.00114483,0.0298539,0.0247625,-0.00411041,0.00686797,-0.000262109,0.0030391,-0.0141944,0.00181192,-0.0378812,-0.00199224,-0.002507,-0.000408769,-0.00599057,0.00788928,0.00919216,0,0,0,0,0,0,0,0,0,-0.000508629,-5.57358e-06,0.000363404,-0.000356093,-0.000364954,-0.000389739,-5.01875e-05,7.24473e-05,0.000316933,0.000340557,3.82435e-06,5.53378e-05
1112,0.00051179,-0.00164743,0.00196729,-0.00222802,0.0720877,0.0720877,0.0720877,0.0720877,0.0720877,0.0720877,0.0720877,0.0720877,0.0720877,-0.927912,-0.375625,-0.688469,1.21495,-0.00164743,0.00196729,-0.00222802,-0.00278206,0.00445198,0.000127077,-0.00680603,0.000309203,0.000918983,0.0720877,-0.00155763,0.0293972,-0.00235002,0.0140663,-0.00132676,-0.00216984,0.0123466,-0.026423,0.00226019,0.00169149,-0.00235718,-0.00436213,-0.017725,-0.00142248,-0.00575643,-0.00278206,0.00445198,0.000127077,-0.00680603,0.000309203,0.000918983,0,0,0,0,0,0,0,0,0,-0.000413068,-1.0865e-05,0.00022433,-0.00032932,-0.000303591,-0.00020331,-1.18957e-05,-5.77925e-05,0.000329636,0.000308892,3.73127e-05,8.316e-06
1113,0.00051179,-0.00417604,-0.00543893,0.0167544,0.0639443,0.0639443,0.0639443,0.0639443,0.0639443,0.0639443,0.0639443,0.0639443,0.0639443,-0.936056,0.268469,0.486592,1.0886,-0.00417604,-0.00543893,0.0167544,0.000714769,0.00105867,-0.00164521,0.00726829,-0.00642254,0.0046738,0.0639443,0.0102189,-0.107664,-0.000329129,-0.0198288,0.00127043,-0.0125,0.087357,0.11057,0.011884,-0.035572,-0.00184204,-0.017488,0.0608397,0.0137192,-0.0866234,0.000714769,0.00105867,-0.00164521,0.00726829,-0.00642254,0.0046738,0,0,0,0,0,0,0,0,0,-0.0005778,-1.26882e-06,0.000175835,-0.000273626,-0.000327075,-0.00016854,3.98244e-05,-4.85993e-05,0.000293106,0.000132174,-3.40466e-05,3.60276e-05
1114,0.00051179,0.0079652,-0.00450409,0.00517211,0.00257241,0.00257241,0.00257241,0.00257241,0.00257241,0.00257241,0.00257241,0.00257241,0.00257241,-0.844797,0.699447,0.997428,1.48249,0.0079652,-0.00450409,0.00517211,0.000851181,-0.00184583,0.00440112,0.00479038,0.00259128,0.00433084,0.00257241,0.000862673,-0.00283348,-0.00048124,-0.000375601,-0.00039722,0.000311468,-0.0018586,-0.0047345,-0.00125957,0.000453219,-7.91568e-05,-0.000450397,0.00442647,-0.00129597,-0.00286312,0.000851181,-0.00184583,0.00440112,0.00479038,0.00259128,0.00433084,0,0,0,0,0,0,0,0,0,-0.00063993,-9.84048e-07,0.0002063,-0.000359122,-0.000335867,-0.00022957,8.10077e-06,5.8806e-05,0.000316806,0.000406248,-3.36847e-05,5.62104e-06
1115,0.00051179,-0.00210629,-0.000456859,0.00431011,0.109354,0.109354,0.109354,0.109354,0.109354,0.109354,0.109354,0.109354,0.109354,-0.859354,0.233769,0.796454,1.19477,-0.00210629,-0.000456859,0.00431011,-0.000423078,-0.00124521,-0.000431523,0.000989762,0.000922274,0.00535992,0.109354,0.000173643,-0.000981149,0.000322469,-0.00350728,0.000348304,0.000179268,0.00454944,0.00273913,-0.000753777,-0.000626264,-0.000898709,-0.00057596,0.00459041,-1.31465e-05,-0.0082836,-0.000423078,-0.00124521,-0.000431523,0.000989762,0.000922274,0.00535992,0,0,0,0,0,0,0,0,0,-0.000658907,-7.40101e-06,0.000106039,-0.000253271,-0.00033843,-0.000115267,-4.9739e-06,1.50857e-05,0.000319667,0.000250749,-1.48501e-05,2.058e-05
1116,0.00051179,-0.0111528,0.000578783,-0.0117885,0.0119047,0.0119047,0.0119047,0.0119047,0.0119047,0.0119047,0.0119047,0.0119047,0.0119047,-0.988095,-0.0265923,-0.841804,1.29833,-0.0111528,0.000578783,-0.0117885,-0.000140418,0.00217681,0.00407396,-0.0115403,-0.0022196,0.00136147,0.0119047,-0.00156103,0.0271676,-0.00185617,0.0112039,-3.3973e-05,0.000644349,0.0113165,-0.0159808,-0.00196518,0.000876008,-0.000954635,0.00135998,-0.0126587,-0.00223047,-0.000887984,-0.000140418,0.00217681,0.00407396,-0.0115403,-0.0022196,0.00136147,0,0,0,0,0,0,0,0,0,-0.000324123,1.00419e-05,8.68532e-06,-0.000304719,-0.00030216,-5.47893e-06,-4.89783e-05,-1.30142e-05,0.000310436,0.000351902,-1.87281e-05,1.42041e-05
1117,0.00051179,-0.020619,0.0149109,-0.0257075,0.0367499,0.0367499,0.0367499,0.0367499,0.0367499,0.0367499,0.0367499,0.0367499,0.0367499,-0.78675,0.639332,-0.254531,1.04523,-0.020619,0.0149109,-0.0257075,-0.0271384,0.00292196,-0.0349439,0.00381888,-0.0159069,-0.0257365,0.0367499,-0.0141284,1.32552,0.00478364,-0.167923,0.031167,-0.052108,2.24451,-1.33607,0.0708604,-0.0296046,0.0209217,0.22025,0.182617,-0.124923,-2.43906,-0.0271384,0.00292196,-0.0349439,0.00381888,-0.0159069,-0.0257365,0,0,0,0,0,0,0,0,0,-0.000797845,-7.10485e-05,-0.000474702,-0.00213498,-0.000186944,0.000551758,0.000508682,1.76926e-05,0.000308149,0.00126447,3.24552e-05,-0.000618014
1118,0.00051179,-0.000152349,0.000899747,-0.0448968,0.115339,0.115339,0.115339,0.115339,0.115339,0.115339,0.115339,0.115339,0.115339,-0.865339,0.739246,0.229569,1.16103,-0.000152349,0.000899747,-0.0448968,0.00225403,-0.00052993,0.00880771,-0.00369181,0.00198629,0.0192208,0.115339,0.228321,-1.29032,-0.0439871,0.0459748,-0.226802,-0.149313,-0.805692,1.51727,-0.00857581,-0.0827834,0.0281205,0.309694,0.0359088,0.0602727,0.540895,0.00225403,-0.00052993,0.00880771,-0.00369181,0.00198629,0.0192208,0,0,0,0,0,0,0,0,0,-0.000236444,0.000809258,0.000367177,-0.00129305,-0.00039866,-0.000812347,-0.000404954,0.000113315,0.000257976,-0.000112009,0.000187753,5.38511e-05
1119,0.00051179,0.0478547,-0.0479815,-0.0477847,0.0181583,0.0181583,0.0181583,0.0181583,0.0181583,0.0181583,0.0181583,0.0181583,0.0181583,-0.768158,-0.962154,-0.570032,1.35674,0.0478547,-0.0479815,-0.0477847,0.00192356,-0.0113723,0.00524545,-0.00228821,-0.00338274,0.00291476,0.0181583,0.00105865,-0.0438391,-1.51917e-05,0.0361951,-0.00475872,0.000241399,0.0299725,0.000743088,-0.00275006,0.0211344,-0.00213002,-0.0189338,-0.00934799,0.00818755,0.036746,0.00192356,-0.0113723,0.00524545,-0.00228821,-0.00338274,0.00291476,0,0,0,0,0,0,0,0,0,-0.000686578,4.47306e-06,0.000399034,-0.000626225,-0.000385607,-0.000512909,-3.56293e-05,-0.000271129,0.00035736,0.000681093,0.000216001,4.50736e-05
1120,0.00051179,-0.0268726,-0.00124732,-0.0722704,0.0462367,0.0462367,0.0462367,0.0462367,0.0462367,0.0462367,0.0462367,0.0462367,0.0462367,-0.796237,-0.747396,-0.0186748,1.09222,-0.0268726,-0.00124732,-0.0722704,-0.0140099,-0.0012794,-0.0284014,-0.011485,-0.0126266,-0.0137323,0.0462367,-0.453184,-4.43698,-0.0349372,-0.283637,0.337673,0.916923,5.6934,4.12618,-0.0331425,-0.198151,0.106564,-0.727475,0.483035,0.0767952,-4.89365,-0.0140099,-0.0012794,-0.0284014,-0.011485,-0.0126266,-0.0137323,0,0,0,0,0,0,0,0,0,-0.000750057,-0.00181817,-2.72478e-05,0.00964687,-0.000401611,-0.000334918,0.000294661,0.00178848,0.000547871,-0.000761656,-0.000849107,0.000833113
1121,0.00051179,-0.016272,-0.0133239,0.0259645,0.0339973,0.0339973,0.0339973,0.0339973,0.0339973,0.0339973,0.0339973,0.0339973,0.0339973,-0.966003,0.255326,0.496149,1.11558,-0.016272,-0.0133239,0.0259645,0.00224594,7.40457e-05,-0.00308505,0.010494,-0.00508569,0.00297217,0.0339973,0.0123299,-0.0959061,-0.000122897,-0.0226798,0.00254525,-0.0136376,0.0713958,0.109633,0.0151447,-0.0371561,-0.00223227,-0.0208058,0.0731598,0.0139026,-0.0765545,0.00224594,7.40457e-05,-0.00308505,0.010494,-0.00508569,0.00297217,0,0,0,0,0,0,0,0,0,-0.000582665,7.00691e-06,0.000162686,-0.000259379,-0.000323171,-0.000163175,6.23213e-05,-4.55477e-05,0.000290319,9.21525e-05,-2.76319e-05,1.85015e-05
1122,0.00051179,0.0150203,-0.0130943,-0.0198058,0.0815291,0.0815291,0.0815291,0.0815291,0.0815291,0.0815291,0.0815291,0.0815291,0.0815291,-0.918471,0.25237,-0.153249,0.964761,0.0150203,-0.0130943,-0.0198058,-0.00715934,0.0151351,-0.00332613,-0.000374101,0.0105284,-0.00567763,0.0815291,-0.257154,-0.957418,-0.09881,-0.336594,-0.224566,-0.0426442,-0.577332,1.16696,-0.0622783,-0.0878529,-0.0163871,-0.0251387,0.437541,0.0485392,0.622277,-0.00715934,0.0151351,-0.00332613,-0.000374101,0.0105284,-0.00567763,0,0,0,0,0,0,0,0,0,-0.000636704,-0.000993755,-0.000417233,-0.00031672,-0.000341857,-0.000419516,1.45507e-05,-5.01846e-05,0.000347361,-0.000142984,-8.40214e-06,0.000542121
1123,0.00051179,-0.0275294,0.0018439,-0.018814,0.094027,0.094027,0.094027,0.094027,0.094027,0.094027,0.094027,0.094027,0.094027,-0.844027,-0.86236,-0.273772,1.23733,-0.0275294,0.0018439,-0.018814,-0.0157775,-0.00542077,1.98409e-05,-0.0011579,-0.0417568,-0.00654838,0.094027,-0.0440473,0.997869,-0.0251034,0.242546,-0.0514967,-0.0329398,0.343192,-0.918843,0.0178605,0.122252,-0.0409386,-0.0519252,-0.366642,-0.00715321,-0.272453,-0.0157775,-0.00542077,1.98409e-05,-0.0011579,-0.0417568,-0.00654838,0,0,0,0,0,0,0,0,0,-0.000848405,-0.000233558,0.000584263,-0.00112559,-0.000468696,-0.000889504,0.000149079,-0.000701955,0.00033015,0.000796393,-0.000124999,-2.942e-06
1124,0.00051179,0.00429997,0.00212367,-0.00173021,0.092861,0.092861,0.092861,0.092861,0.092861,0.092861,0.092861,0.092861,0.092861,-0.907139,-0.183309,0.523227,1.06314,0.00429997,0.00212367,-0.00173021,-0.00131685,0.00131733,0.001043,0.00392848,0.00119719,0.0044343,0.092861,0.00467063,-0.0577369,-0.00112986,0.0129693,-0.000323991,-0.00579621,0.0541208,0.0537609,0.00874956,0.00824329,0.00205162,-8.07578e-05,-0.0233362,0.00848064,-0.0523098,-0.00131685,0.00131733,0.001043,0.00392848,0.00119719,0.0044343,0,0,0,0,0,0,0,0,0,-0.000599973,-1.66312e-05,-0.000133552,-0.000217852,-0.000347698,0.000135427,2.99901e-05,5.55766e-05,0.000312999,0.00017032,-2.30885e-05,3.11746e-05
1125,0.00051179,-0.00535025,-0.000207357,-0.00424692,0.0304972,0.0304972,0.0304972,0.0304972,0.0304972,0.0304972,0.0304972,0.0304972,0.0304972,-0.969503,0.0338352,-0.856617,1.29417,-0.00535025,-0.000207357,-0.00424692,-0.00243236,0.000360625,0.003044,-0.00985418,-0.00206202,0.00112452,0.0304972,-0.000733301,0.0152718,-0.00151449,0.00946852,0.000175297,0.00105289,0.00282691,-0.0100968,-0.00186059,0.000983956,-0.000565353,0.00155867,-0.0102451,-0.00188186,-0.000138649,-0.00243236,0.000360625,0.003044,-0.00985418,-0.00206202,0.00112452,0,0,0,0,0,0,0,0,0,-0.000319995,2.21529e-06,-2.44058e-05,-0.000305875,-0.000304693,1.28672e-05,-4.05303e-05,-1.11188e-06,0.000315487,0.000346844,-2.51618e-05,1.42569e-05
1126,0.00051179,0.0619787,0.0247624,0.0603194,0.0103953,0.0103953,0.0103953,0.0103953,0.0103953,0.0103953,0.0103953,0.0103953,0.0103953,-0.760395,-0.682906,-0.314976,1.06947,0.0619787,0.0247624,0.0603194,-0.059656,0.0157602,0.00554928,0.0440515,-0.0196576,0.0453256,0.0103953,0.000803903,-0.0537141,-0.000542097,0.0959718,0.00765367,-0.0013132,0.346114,-0.0159183,0.0192703,0.0522311,-0.0201009,0.0324362,-0.172965,-0.0223282,-0.43887,-0.059656,0.0157602,0.00554928,0.0440515,-0.0196576,0.0453256,0,0,0,0,0,0,0,0,0,-0.00071948,-0.000325953,0.000493374,-0.00111192,-0.000451947,-0.000341193,0.000284916,-0.000355053,0.000388995,0.00115428,-4.2531e-05,8.32944e-05
1127,0.00051179,0.00402439,-0.00257677,0.00252308,0.0226419,0.0226419,0.0226419,0.0226419,0.0226419,0.0226419,0.0226419,0.0226419,0.0226419,-0.860013,-0.523376,0.977358,1.40313,0.00402439,-0.00257677,0.00252308,-0.00170878,0.00107863,-0.00231323,0.00327492,-0.00227675,0.00658969,0.0226419,0.000993505,-0.00116488,-0.000374787,-0.00115565,-3.22764e-05,0.000454042,0.000276974,-0.00282724,-0.00106165,0.000289552,-0.000158519,0.000759867,0.00344287,-0.00133158,-0.00355992,-0.00170878,0.00107863,-0.00231323,0.00327492,-0.00227675,0.00658969,0,0,0,0,0,0,0,0,0,-0.000649981,-1.13719e-05,-0.000210962,-0.000333244,-0.00033378,0.000218001,3.27085e-06,-1.62921e-05,0.00033851,0.000314652,-8.06057e-06,1.84951e-05
1128,0.00051179,-0.00872779,0.0120503,0.00736777,0.0817262,0.0817262,0.0817262,0.0817262,0.0817262,0.0817262,0.0817262,0.0817262,0.0817262,-0.831726,-0.278508,-0.210231,0.90196,-0.00872779,0.0120503,0.00736777,-0.0143465,0.0195221,-0.00944534,0.0103427,0.0195374,-0.00252689,0.0817262,-0.155628,1.46692,0.030546,-0.426065,-0.0826916,-0.141739,-0.108729,-1.3755,-0.0816644,-0.143257,0.0349234,-0.139006,0.557272,-0.0991094,0.240367,-0.0143465,0.0195221,-0.00944534,0.0103427,0.0195374,-0.00252689,0,0,0,0,0,0,0,0,0,-0.000668459,-0.00045418,0.000584183,-0.00151152,-0.000301415,-8.35018e-05,3.90825e-05,0.00037181,0.000324361,-3.19473e-07,0.000172798,-0.000112491
1129,0.00051179,0.0134211,-0.00369711,-0.00551671,0.0186022,0.0186022,0.0186022,0.0186022,0.0186022,0.0186022,0.0186022,0.0186022,0.0186022,-0.768602,0.782132,0.840328,1.38153,0.0134211,-0.00369711,-0.00551671,0.00833868,-0.00608695,-0.00585007,0.00297875,0.00779698,0.00747849,0.0186022,0.000277653,-0.0129548,0.000101931,-0.000453685,0.000605144,0.000420947,0.00254364,-0.00107145,-0.000782626,0.00147402,-0.000628275,0.000491698,0.00267678,-0.000906035,0.00248138,0.00833868,-0.00608695,-0.00585007,0.00297875,0.00779698,0.00747849,0,0,0,0,0,0,0,0,0,-0.000556648,2.30221e-05,0.000274673,-0.000427901,-0.00036695,-0.000334523,-9.07889e-06,6.98024e-05,0.000345051,0.000373609,1.88464e-06,1.28028e-05
1130,0.00051179,0.00468846,0.00309423,0.000476509,0.036952,0.036952,0.036952,0.036952,0.036952,0.036952,0.036952,0.036952,0.036952,-0.963048,0.901557,0.929835,1.61396,0.00468846,0.00309423,0.000476509,-0.00353188,-0.00312945,-0.00124424,0.00374628,-0.00464653,0.00788439,0.036952,0.00140227,-0.00123849,-9.63435e-05,-0.00205886,-0.00107068,0.000493165,-0.00234847,-0.00237929,-0.000266181,-0.00419636,-0.000476656,-0.0019891,0.00316099,-0.00225558,0.00386106,-0.00353188,-0.00312945,-0.00124424,0.00374628,-0.00464653,0.00788439,0,0,0,0,0,0,0,0,0,-0.000566624,-1.87011e-05,0.000241232,-0.000470319,-0.000307286,-0.00027349,9.34745e-06,2.11843e-05,0.000253901,0.000462808,-7.24162e-05,2.0091e-05
1131,0.00051179,0.0164152,0.0139869,-0.00968572,0.00132397,0.00132397,0.00132397,0.00132397,0.00132397,0.00132397,0.00132397,0.00132397,0.00132397,-0.751324,0.214721,-0.865136,1.16578,0.0164152,0.0139869,-0.00968572,-0.00958081,-0.00611938,-0.000934273,0.00406727,0.000640155,-0.00746352,0.00132397,0.000239745,-0.0135994,-0.000367098,0.00336109,0.000565782,0.000635032,-8.66445e-05,-0.00338156,0.00441615,-0.0102032,-0.000609738,0.000743013,-0.00714481,0.00160336,0.00902935,-0.00958081,-0.00611938,-0.000934273,0.00406727,0.000640155,-0.00746352,0,0,0,0,0,0,0,0,0,-0.000334732,-3.8954e-05,-0.000102989,-0.000320891,-0.000292057,3.81238e-05,5.01684e-05,2.96174e-05,0.000383936,0.000317898,-2.93132e-05,-2.15495e-05
1132,0.00051179,-0.00640011,-0.00958452,-0.0301249,0.104563,0.104563,0.104563,0.104563,0.104563,0.104563,0.104563,0.104563,0.104563,-0.854563,-0.601773,-0.115225,1.05152,-0.00640011,-0.00958452,-0.0301249,0.00293013,-0.018212,0.0268722,0.00849703,-0.00831638,0.00267667,0.104563,-0.973289,-8.09427,0.0364777,0.697299,1.01436,-0.0789047,-2.73681,7.0863,-0.115445,-0.35842,0.0177904,0.0140376,-0.329295,0.135201,2.7529,0.00293013,-0.018212,0.0268722,0.00849703,-0.00831638,0.00267667,0,0,0,0,0,0,0,0,0,-0.000977658,-0.00376784,0.000371414,0.000513347,-0.000369275,-0.000188757,0.000549217,0.000130986,0.000366889,-0.00103367,-3.62454e-05,0.00177334
1133,0.00051179,0.0138408,0.00559356,0.000325888,0.0303541,0.0303541,0.0303541,0.0303541,0.0303541,0.0303541,0.0303541,0.0303541,0.0303541,-0.969646,-0.157894,0.660031,1.18355,0.0138408,0.00559356,0.000325888,-0.000655494,-0.000899022,-0.000123104,0.00878739,0.000276421,0.000199563,0.0303541,0.00270762,-0.0263476,-0.000573926,0.0120311,-0.000810043,-0.00356242,0.0257774,0.0133169,0.00835134,0.00429837,0.000592221,0.00032588,-0.021923,0.00585363,-0.0264292,-0.000655494,-0.000899022,-0.000123104,0.00878739,0.000276421,0.000199563,0,0,0,0,0,0,0,0,0,-0.000629939,-1.88671e-05,-0.000103621,-0.000205212,-0.0003474,8.88915e-05,5.65659e-05,3.34585e-05,0.000303909,0.000168357,-2.47721e-05,1.13823e-06
1134,0.00051179,0.00895136,0.00445839,-0.00263769,0.0250608,0.0250608,0.0250608,0.0250608,0.0250608,0.0250608,0.0250608,0.0250608,0.0250608,-0.775061,-0.57687,0.801603,1.25541,0.00895136,0.00445839,-0.00263769,0.000181666,-0.00154621,-0.00258324,-0.00720849,-0.00619989,0.0056245,0.0250608,0.000179961,-0.00860044,6.3546e-05,-0.00536,-0.000452246,0.000428971,0.00303323,0.000101325,-0.000717776,-0.00129332,-0.000827227,0.000202553,0.00219493,-0.000612032,-0.000598098,0.000181666,-0.00154621,-0.00258324,-0.00720849,-0.00619989,0.0056245,0,0,0,0,0,0,0,0,0,-0.000578776,4.75294e-06,-0.000290394,-0.00031627,-0.000307972,0.000275567,-3.66865e-05,-3.78129e-05,0.000363611,0.000294727,-3.24583e-05,2.80072e-05
1135,0.00051179,0.0207618,0.0232927,0.0154623,0.0173676,0.0173676,0.0173676,0.0173676,0.0173676,0.0173676,0.0173676,0.0173676,0.0173676,-0.982632,0.514679,0.215412,1.12998,0.0207618,0.0232927,0.0154623,0.00199352,-0.00175256,0.0211239,0.0364723,0.00152201,-0.00161327,0.0173676,0.294312,0.909961,0.00160021,0.201591,-0.268478,-0.0892023,-0.756871,-0.662245,0.053517,-0.195547,-0.0172791,0.0646427,-0.0293368,-0.0154414,0.676766,0.00199352,-0.00175256,0.0211239,0.0364723,0.00152201,-0.00161327,0,0,0,0,0,0,0,0,0,-0.000448875,0.00105548,0.000360537,-5.62269e-05,-0.000273669,-0.00036206,2.38996e-05,-0.000128154,0.000326894,-0.000624557,-2.9417e-05,-0.00051132
1136,0.00051179,-0.000681303,-0.00610295,-0.000474829,0.0371211,0.0371211,0.0371211,0.0371211,0.0371211,0.0371211,0.0371211,0.0371211,0.0371211,-0.962879,-0.178118,0.544493,1.12042,-0.000681303,-0.00610295,-0.000474829,-0.00157323,-0.000666535,0.000152264,0.00617788,-0.000675023,0.00198899,0.0371211,0.00724752,-0.0666953,-0.00173163,0.00946686,-0.000178091,-0.00758982,0.0556224,0.0675547,0.0158272,0.0113704,0.00299141,-0.0014743,-0.0147343,0.00998132,-0.0536732,-0.00157323,-0.000666535,0.000152264,0.00617788,-0.000675023,0.00198899,0,0,0,0,0,0,0,0,0,-0.00060425,-1.73782e-05,-0.000123959,-0.000210061,-0.000352884,9.99775e-05,6.42757e-05,4.87459e-05,0.000304729,0.000135685,-2.55821e-05,1.41019e-05
1137,0.00051179,0.0045104,-0.0188541,0.0152453,0.0474471,0.0474471,0.0474471,0.0474471,0.0474471,0.0474471,0.0474471,0.0474471,0.0474471,-0.797447,0.286893,0.247011,0.882748,0.0045104,-0.0188541,0.0152453,0.0100153,0.00966098,-0.0243708,0.0107399,-0.0351555,0.00309462,0.0474471,0.0238186,-0.980739,0.00736476,-0.219043,0.00452827,-0.0441792,1.1819,0.9717,0.0176125,-0.22726,-0.0321379,-0.0493891,0.465156,0.0784268,-1.14776,0.0100153,0.00966098,-0.0243708,0.0107399,-0.0351555,0.00309462,0,0,0,0,0,0,0,0,0,-0.000453383,3.35299e-06,0.000441676,-0.00111996,-0.000308597,-0.000271418,-2.40546e-05,-0.00051186,0.000296555,0.000434462,-0.000161074,0.000241791
1138,0.00051179,-0.00154851,-0.000285513,-0.0115779,0.00343157,0.00343157,0.00343157,0.00343157,0.00343157,0.00343157,0.00343157,0.00343157,0.00343157,-0.753432,-0.242453,0.435867,0.903561,-0.00154851,-0.000285513,-0.0115779,-0.00468359,-0.00657882,-0.00636676,-0.0108931,0.00117003,-0.00428017,0.00343157,8.53091e-05,-0.00516597,-8.37371e-05,-0.000591524,-5.43635e-05,-0.000470452,0.0865341,0.00676884,-0.0134829,0.0105127,0.00101513,-0.00122131,-0.00963565,0.0073547,-0.0737349,-0.00468359,-0.00657882,-0.00636676,-0.0108931,0.00117003,-0.00428017,0,0,0,0,0,0,0,0,0,-0.000570081,6.89298e-06,-0.000179314,-0.000262242,-0.000326389,0.000112688,-9.19959e-05,5.70228e-05,0.000344284,0.00019387,-3.51712e-05,4.52571e-05
1139,0.00051179,-0.0238457,-0.00232172,-0.0317755,0.0933816,0.0933816,0.0933816,0.0933816,0.0933816,0.0933816,0.0933816,0.0933816,0.0933816,-0.843382,0.756395,-0.0989458,1.1372,-0.0238457,-0.00232172,-0.0317755,-0.00181139,-0.0176398,0.0182763,-0.00837272,-0.017611,0.00111115,0.0933816,-1.03493,-9.96282,0.11968,0.753247,0.889477,0.111663,-1.80441,9.09719,-0.0561334,0.484618,-0.0299888,0.0266278,-1.23554,0.22198,1.80956,-0.00181139,-0.0176398,0.0182763,-0.00837272,-0.017611,0.00111115,0,0,0,0,0,0,0,0,0,-0.00104716,-0.00417043,8.3415e-05,0.00173409,-0.000177378,0.00093699,0.000690722,-0.000839281,0.000383481,-0.0004347,0.000363283,0.00212871
1140,0.00051179,0.00947236,-0.00708232,0.00233085,0.00864813,0.00864813,0.00864813,0.00864813,0.00864813,0.00864813,0.00864813,0.00864813,0.00864813,-0.758648,-0.924692,0.934316,1.51774,0.00947236,-0.00708232,0.00233085,0.000156574,-0.0114653,0.00207264,0.00654937,-0.00436247,0.00777417,0.00864813,0.000715986,-0.00910254,-0.000390522,0.0049719,0.000325779,0.000187561,0.000896055,-0.000695596,-0.000891255,-0.000708721,-0.000184056,-0.00257334,0.00281914,-0.000840224,-0.000653566,0.000156574,-0.0114653,0.00207264,0.00654937,-0.00436247,0.00777417,0,0,0,0,0,0,0,0,0,-0.000524111,-1.11733e-05,-0.000313395,-0.000460064,-0.000302935,0.000194837,1.27545e-05,-5.49764e-05,0.000380777,0.000482666,9.51114e-06,1.91336e-05
1141,0.00051179,0.00424431,-0.00510184,-0.0230988,0.0705862,0.0705862,0.0705862,0.0705862,0.0705862,0.0705862,0.0705862,0.0705862,0.0705862,-0.929414,0.00785875,-0.255109,0.963822,0.00424431,-0.00510184,-0.0230988,-0.00274164,0.000887984,-0.00455613,-0.000189718,0.000212436,-0.00109967,0.0705862,-0.0551029,0.177541,-0.00399154,0.0180439,-0.104867,-0.0312521,-0.151536,-0.0769179,-0.0374785,0.0315146,-0.0055926,-0.0686667,-0.0444567,8.85166e-05,0.243301,-0.00274164,0.000887984,-0.00455613,-0.000189718,0.000212436,-0.00109967,0,0,0,0,0,0,0,0,0,-0.000538997,-0.000177849,-2.27911e-05,-0.000452847,-0.000325168,-8.24442e-06,-7.69675e-05,-2.01906e-05,0.000328369,9.47645e-05,-3.36111e-05,0.000106318
1142,0.00051179,0.00453627,-0.00360474,0.000584108,0.0766686,0.0766686,0.0766686,0.0766686,0.0766686,0.0766686,0.0766686,0.0766686,0.0766686,-0.923331,0.509152,-0.685405,1.2576,0.00453627,-0.00360474,0.000584108,-0.00181887,-0.00170112,-0.00104765,-0.00396924,-0.00253179,0.00108892,0.0766686,-0.000749633,0.0195469,-0.00222462,0.0174541,0.00142423,-0.00128659,0.00438591,-0.0255073,0.00285534,-0.00630701,-0.000621026,0.00480063,-0.00754238,-0.00113549,-0.00977065,-0.00181887,-0.00170112,-0.00104765,-0.00396924,-0.00253179,0.00108892,0,0,0,0,0,0,0,0,0,-0.00044959,-8.53987e-06,-0.00028082,-0.000386588,-0.000303382,0.000241563,-1.26682e-06,6.04562e-05,0.000304215,0.000363246,-9.19843e-05,4.06982e-06
1143,0.00051179,0.0694444,-0.00912625,0.179533,0.0197418,0.0197418,0.0197418,0.0197418,0.0197418,0.0197418,0.0197418,0.0197418,0.0197418,-0.769742,-0.673478,-0.215297,1.04519,0.0694444,-0.00912625,0.179533,-0.0117509,-0.0171662,-0.0438312,0.00648546,0.0193089,-0.0662022,0.0197418,-0.0227573,2.79351,-0.0105902,0.61888,0.0694552,-0.0690974,5.0347,-2.93241,0.0575306,0.0723922,-0.0552114,0.253518,-0.682146,-0.218315,-5.46775,-0.0117509,-0.0171662,-0.0438312,0.00648546,0.0193089,-0.0662022,0,0,0,0,0,0,0,0,0,-0.000901982,0.0001217,0.00035023,-0.0032131,-0.000474656,-0.000627794,0.000614322,-0.00020926,0.000337332,0.00208382,-0.000149765,-0.00112834
1144,0.00051179,0.0531824,0.0307736,-0.0615798,0.0277121,0.0277121,0.0277121,0.0277121,0.0277121,0.0277121,0.0277121,0.0277121,0.0277121,-0.777712,-0.928971,0.305052,1.24935,0.0531824,0.0307736,-0.0615798,-0.00420129,-0.013856,0.0175252,-0.0161361,-0.0410597,-0.0521075,0.0277121,0.0025319,-0.0627982,0.00236041,-0.105552,0.0245821,0.00164416,-0.26616,-0.0149663,-0.00931503,-0.160187,-0.0161989,-0.133483,0.234966,-0.0419904,0.461223,-0.00420129,-0.013856,0.0175252,-0.0161361,-0.0410597,-0.0521075,0,0,0,0,0,0,0,0,0,-0.000183947,0.00013152,-0.000715465,-0.000782247,-0.000200355,0.000600509,1.26117e-05,-0.000564815,0.000400439,0.000973941,-7.77016e-06,-0.000330622
1145,0.00051179,0.00140674,-0.00745402,0.00922446,0.0174797,0.0174797,0.0174797,0.0174797,0.0174797,0.0174797,0.0174797,0.0174797,0.0174797,-0.98252,0.651316,-0.895224,1.4802,0.00140674,-0.00745402,0.00922446,0.000365836,-0.000936883,0.00379339,-0.00767311,-0.00857379,0.00260117,0.0174797,0.00104357,-0.00705732,-0.00106006,0.0045145,0.000454191,0.00149903,-0.00861193,0.00519638,-0.00114878,0.00241025,0.000281789,4.33178e-05,0.000529269,-0.00202829,-0.000655849,0.000365836,-0.000936883,0.00379339,-0.00767311,-0.00857379,0.00260117,0,0,0,0,0,0,0,0,0,-0.000402309,1.49389e-05,-0.000257109,-0.0004333,-0.000334674,0.00023714,-3.62176e-05,7.55154e-05,0.000258327,0.000486224,-0.000158435,1.07563e-05
1146,0.00051179,-0.00193678,0.00136627,-0.0101204,0.0186853,0.0186853,0.0186853,0.0186853,0.0186853,0.0186853,0.0186853,0.0186853,0.0186853,-0.789125,-0.355198,-0.981315,1.30838,-0.00193678,0.00136627,-0.0101204,-0.00890827,0.00152239,-0.000188433,-0.00111676,-0.00197906,-0.00321966,0.0186853,0.00117357,-0.00825928,-5.27725e-05,0.00248855,0.000144542,0.000701539,-0.0012427,0.0100515,-0.000154899,0.00135888,0.000166238,-0.00106869,-0.0052137,-0.000756029,0.0124318,-0.00890827,0.00152239,-0.000188433,-0.00111676,-0.00197906,-0.00321966,0,0,0,0,0,0,0,0,0,-0.00031326,-2.36942e-05,0.000161994,-0.000370404,-0.000313545,-0.000147297,8.62099e-06,-3.76553e-05,0.000380591,0.000375535,1.95271e-05,-4.89917e-06
1147,0.00051179,0.0127135,-0.00806861,-0.00882281,0.0717296,0.0717296,0.0717296,0.0717296,0.0717296,0.0717296,0.0717296,0.0717296,0.0717296,-0.92769,-0.92827,0.50122,1.40482,0.0127135,-0.00806861,-0.00882281,-0.0048841,-0.00210905,-0.00983145,-0.00510497,0.00715645,0.0127064,0.0717296,-0.0027089,0.0432714,0.00272656,-0.0268104,0.0159821,0.00270308,0.012889,-0.071967,0.00227244,0.0068667,-0.00195748,-0.0271044,0.0280123,-0.00188456,0.0230382,-0.0048841,-0.00210905,-0.00983145,-0.00510497,0.00715645,0.0127064,0,0,0,0,0,0,0,0,0,-0.000305645,-3.84223e-05,-0.000610967,-0.000567992,-0.000357235,0.000617142,-1.462e-05,-3.97632e-05,0.000291735,0.000496708,9.1753e-05,5.3652e-05
1148,0.00051179,0.0112579,-0.00442326,0.0172449,0.0253425,0.0253425,0.0253425,0.0253425,0.0253425,0.0253425,0.0253425,0.0253425,0.0253425,-0.974657,0.101334,-0.524295,1.11136,0.0112579,-0.00442326,0.0172449,-0.00166988,1.74786e-05,0.00358529,0.00352051,-0.00422124,0.00164449,0.0253425,-0.00668113,0.073385,-0.000804357,-0.0295144,-0.000775785,-0.0102155,0.0341122,-0.0838671,-0.00995021,0.0123162,-0.00466418,-0.00361679,0.0216214,-0.00501075,-0.0477403,-0.00166988,1.74786e-05,0.00358529,0.00352051,-0.00422124,0.00164449,0,0,0,0,0,0,0,0,0,-0.000427671,-2.08162e-05,-6.22634e-05,-0.000339129,-0.000311369,5.43946e-05,-1.12097e-05,-6.53439e-05,0.000313714,0.000272828,-2.35102e-05,4.10752e-06
1149,0.00051179,-0.01921,0.0106036,-0.00292444,0.124487,0.124487,0.124487,0.124487,0.124487,0.124487,0.124487,0.124487,0.124487,-0.874487,0.800991,-0.0061352,1.1859,-0.01921,0.0106036,-0.00292444,-0.00249323,0.00026104,0.00324836,-0.0115418,-0.00351945,-0.0189278,0.124487,-0.0737189,-0.765126,0.0038547,0.0469206,-0.00762848,0.592366,3.88223,0.791965,0.00836746,-0.00674111,-0.0944585,-0.179578,-0.0507831,0.0256662,-3.69973,-0.00249323,0.00026104,0.00324836,-0.0115418,-0.00351945,-0.0189278,0,0,0,0,0,0,0,0,0,-0.000611939,-0.000297236,1.73037e-05,0.00474477,-0.000285352,2.38537e-05,6.7953e-05,-0.00123323,0.000503391,0.00121137,0.000253454,0.000117517
1150,0.00051179,-0.0229702,-0.0220446,0.033194,0.0256793,0.0256793,0.0256793,0.0256793,0.0256793,0.0256793,0.0256793,0.0256793,0.0256793,-0.974321,0.552247,-0.0886114,1.12345,-0.0229702,-0.0220446,0.033194,0.0220053,-0.00575156,-0.00274088,-0.0303814,-0.00117058,-0.011372,0.0256793,-0.34468,-2.50583,-0.0138631,-0.238258,0.370358,0.0740626,0.325257,2.15844,-0.0268012,0.128865,-0.00563264,-0.199977,0.131437,0.0742696,-0.158474,0.0220053,-0.00575156,-0.00274088,-0.0303814,-0.00117058,-0.011372,0,0,0,0,0,0,0,0,0,-0.000670113,-0.00124765,-0.000246916,0.000535728,-0.000305081,5.07694e-05,7.98094e-05,-7.51292e-06,0.00041467,0.000177489,-6.05193e-05,0.00068021
1151,0.00051179,-0.00687026,-0.00467604,-0.029095,0.0527945,0.0527945,0.0527945,0.0527945,0.0527945,0.0527945,0.0527945,0.0527945,0.0527945,-0.947205,-0.0231167,-0.342588,1.00752,-0.00687026,-0.00467604,-0.029095,-0.00713763,-0.00120698,-0.00616824,0.00169388,-0.00657691,-0.00308979,0.0527945,-0.0205018,0.12243,0.00336332,-0.0279185,-0.0217104,-0.0220443,-0.00560865,-0.0938498,-0.0247222,0.0145506,-0.000369172,-0.0273501,0.0180439,-0.00836975,0.0620538,-0.00713763,-0.00120698,-0.00616824,0.00169388,-0.00657691,-0.00308979,0,0,0,0,0,0,0,0,0,-0.000497721,-6.65117e-05,7.27756e-06,-0.000437714,-0.000320965,1.42858e-05,-4.34563e-05,-4.11904e-05,0.000322498,0.000155589,-2.82704e-05,1.43876e-05
1152,0.00051179,0.00290077,0.000325247,-0.0102991,0.0114949,0.0114949,0.0114949,0.0114949,0.0114949,0.0114949,0.0114949,0.0114949,0.0114949,-0.778858,0.816074,-0.988505,1.49991,0.00290077,0.000325247,-0.0102991,-0.000142338,0.000178196,-0.00334816,-0.00145768,0.00382565,0.000580222,0.0114949,0.000897959,-0.0134686,-6.82399e-05,0.00341566,-0.000361481,3.75286e-05,-0.00531646,0.0109293,0.000433667,0.00149478,0.000551905,4.37517e-05,-0.00523569,-0.000554007,0.0155718,-0.000142338,0.000178196,-0.00334816,-0.00145768,0.00382565,0.000580222,0,0,0,0,0,0,0,0,0,-0.000398375,4.05754e-06,-0.000248836,-0.000559833,-0.000296587,0.000249936,-4.84063e-06,0.000132797,0.000338614,0.000526727,-8.9021e-05,4.10513e-07
1153,0.00051179,0.035007,0.0236507,-0.0134142,0.0634797,0.0634797,0.0634797,0.0634797,0.0634797,0.0634797,0.0634797,0.0634797,0.0634797,-0.93652,-0.907477,0.149377,1.31259,0.035007,0.0236507,-0.0134142,-0.00289892,-0.0118283,0.0191636,0.00145202,0.0184717,0.00867179,0.0634797,0.260245,2.17729,0.0775207,0.349685,0.467993,0.185485,-0.874552,-2.68029,0.00991778,0.0743262,-0.0088731,-0.0266309,-0.447662,-0.12454,0.914597,-0.00289892,-0.0118283,0.0191636,0.00145202,0.0184717,0.00867179,0,0,0,0,0,0,0,0,0,-0.000214159,0.00111037,-0.000831645,0.00102474,-0.000310982,0.00148857,-0.000119514,2.08014e-05,0.000343554,0.00102175,7.51849e-05,-0.000755704
1154,0.00051179,-0.00659871,0.000630617,-0.00343966,0.0868878,0.0868878,0.0868878,0.0868878,0.0868878,0.0868878,0.0868878,0.0868878,0.0868878,-0.913112,-0.229861,0.141315,0.952145,-0.00659871,0.000630617,-0.00343966,0.0119229,0.0102536,0.00432576,0.00270808,-0.0102643,0.00727595,0.0868878,0.242607,1.04997,-0.0588941,-0.587218,0.176051,-0.0142574,-0.513781,-1.21942,0.10213,-0.0289974,0.00366546,-0.0586317,0.615585,-0.060508,0.575853,0.0119229,0.0102536,0.00432576,0.00270808,-0.0102643,0.00727595,0,0,0,0,0,0,0,0,0,-0.000468828,0.000919417,-0.000313102,3.87916e-05,-0.000407154,-0.000173303,0.000170956,1.13414e-05,0.000350542,-0.000138108,-7.73297e-05,-0.000619394
1155,0.00051179,-0.00460083,-0.00043645,-0.00319351,0.0666982,0.0666982,0.0666982,0.0666982,0.0666982,0.0666982,0.0666982,0.0666982,0.0666982,-0.933302,-0.59104,0.624262,1.26889,-0.00460083,-0.00043645,-0.00319351,0.00217633,-0.000654146,-0.00234675,0.00487438,0.00605982,0.000279112,0.0666982,0.00257112,-0.0254114,0.000511594,0.00195959,-0.00453854,-0.00383334,0.0405291,0.0345508,0.0040019,0.00641429,-0.0011629,0.00768552,-0.00793742,0.0047204,-0.0450211,0.00217633,-0.000654146,-0.00234675,0.00487438,0.00605982,0.000279112,0,0,0,0,0,0,0,0,0,-0.000520214,2.24889e-06,-0.0003645,-0.00030552,-0.000357741,0.000363075,2.2893e-05,2.66173e-05,0.000313707,0.000243719,2.2352e-05,3.50923e-06
1156,0.00051179,-0.00614138,-0.000713474,0.00177186,0.0476835,0.0476835,0.0476835,0.0476835,0.0476835,0.0476835,0.0476835,0.0476835,0.0476835,-0.952317,-0.0830162,-0.936925,1.33852,-0.00614138,-0.000713474,0.00177186,-0.00700844,-0.000574179,0.003574,-0.0120886,-0.00196034,0.000498894,0.0476835,0.00130965,-0.00109117,-0.000732236,0.00469801,0.000107086,0.00108359,-0.00123097,0.00712546,-0.00198965,0.000465862,-1.31559e-05,0.000285994,-0.0044504,-0.00172519,-0.000826875,-0.00700844,-0.000574179,0.003574,-0.0120886,-0.00196034,0.000498894,0,0,0,0,0,0,0,0,0,-0.000296868,-4.25929e-06,4.45061e-05,-0.000306674,-0.000299657,-5.75703e-05,-4.61568e-05,-7.06767e-06,0.000322267,0.00035325,-1.26673e-05,1.81032e-05
1157,0.00051179,0.0060092,-0.00256098,0.00420013,0.031115,0.031115,0.031115,0.031115,0.031115,0.031115,0.031115,0.031115,0.031115,-0.781115,-0.399251,0.859171,1.22789,0.0060092,-0.00256098,0.00420013,0.00230182,-0.000725808,0.00110544,-0.00641619,-0.00446302,0.00633325,0.031115,0.000569955,-0.00788732,-0.000100546,-0.00181954,7.08379e-05,0.000456367,0.000346716,0.00180728,-0.00100096,0.000156113,-0.000574042,0.00052733,0.00422441,-0.000519242,-0.00507418,0.00230182,-0.000725808,0.00110544,-0.00641619,-0.00446302,0.00633325,0,0,0,0,0,0,0,0,0,-0.000640325,1.28951e-05,-0.000207275,-0.000279631,-0.000317747,0.000199012,-3.85495e-05,-1.38037e-05,0.000357412,0.000295249,-3.6567e-05,2.76062e-05
1158,0.00051179,0.00690487,0.0123869,-0.00839715,0.0123509,0.0123509,0.0123509,0.0123509,0.0123509,0.0123509,0.0123509,0.0123509,0.0123509,-0.762351,0.742572,-0.603995,1.22368,0.00690487,0.0123869,-0.00839715,-0.00601165,0.00518199,0.00768548,0.010566,0.0231633,0.0105841,0.0123509,0.00087209,-0.00940584,-0.000201993,0.0308101,0.000437712,0.00044468,0.0222816,0.00206325,0.00437076,-0.0331707,-0.00270414,0.00426631,-0.0100263,-0.0011252,-0.0181508,-0.00601165,0.00518199,0.00768548,0.010566,0.0231633,0.0105841,0,0,0,0,0,0,0,0,0,-0.00057321,-4.79164e-05,-0.000435624,-0.000504669,-0.000229741,0.000485424,5.24653e-05,0.000232425,0.000358514,0.000585971,-2.78338e-05,2.50759e-05
1159,0.00051179,0.0156527,-0.0105506,-0.00950019,0.0786514,0.0786514,0.0786514,0.0786514,0.0786514,0.0786514,0.0786514,0.0786514,0.0786514,-0.921349,0.605512,0.311875,1.14577,0.0156527,-0.0105506,-0.00950019,0.00228172,-0.00504338,-0.00304885,0.00686996,-0.000702415,0.0073147,0.0786514,0.0958213,-0.6475,-0.00287204,0.00526437,-0.12589,-0.0763674,-0.0420592,0.757738,-0.000194954,-0.112502,-0.010054,0.152653,0.117788,0.0428731,-0.101094,0.00228172,-0.00504338,-0.00304885,0.00686996,-0.000702415,0.0073147,0,0,0,0,0,0,0,0,0,-0.000399001,0.000311708,0.00044785,-0.000630677,-0.000325346,-0.000527004,-0.000145432,-6.87509e-05,0.000268959,-0.000163485,-3.88134e-05,7.21324e-05
1160,0.00051179,0.000896648,-0.00240806,0.00333729,0.0702759,0.0702759,0.0702759,0.0702759,0.0702759,0.0702759,0.0702759,0.0702759,0.0702759,-0.901684,-0.00667658,0.929724,1.29517,0.000896648,-0.00240806,0.00333729,-0.00128819,-0.00120267,-0.00144162,0.00388629,-0.000505423,0.00463915,0.0702759,0.00127079,-0.00312626,-0.000127248,-0.00191257,0.000280068,0.000235163,0.00399006,0.00194954,1.7656e-05,4.25685e-06,-8.66195e-05,-0.000318684,0.00431638,-0.000984844,-0.00700868,-0.00128819,-0.00120267,-0.00144162,0.00388629,-0.000505423,0.00463915,0,0,0,0,0,0,0,0,0,-0.000702262,-8.78801e-06,-2.09713e-05,-0.000256247,-0.000334436,7.67217e-06,1.08188e-05,1.99625e-05,0.000316195,0.000244182,-2.58829e-05,9.57055e-06
1161,0.00051179,-0.00143949,0.00470767,0.00221878,0.0981397,0.0981397,0.0981397,0.0981397,0.0981397,0.0981397,0.0981397,0.0981397,0.0981397,-0.90186,0.213246,0.557901,1.0817,-0.00143949,0.00470767,0.00221878,-0.00210931,0.00213207,0.000267157,0.00368632,-0.00347446,0.00627262,0.0981397,0.00360914,-0.0431296,-0.000941865,0.0151683,-0.00107844,-0.00444557,0.0470031,0.0456475,0.00438674,-0.00982083,2.53413e-06,-0.0042417,-0.0100551,0.00686681,-0.0449802,-0.00210931,0.00213207,0.000267157,0.00368632,-0.00347446,0.00627262,0,0,0,0,0,0,0,0,0,-0.000604756,-1.87074e-05,0.000132298,-0.000234582,-0.000335271,-0.000120396,1.41587e-05,-8.36294e-06,0.000303201,0.000192798,-2.63563e-05,3.94906e-05
1162,0.00051179,0.0112801,0.0177908,-0.010026,0.107604,0.107604,0.107604,0.107604,0.107604,0.107604,0.107604,0.107604,0.107604,-0.857604,-0.0105077,0.247833,0.892758,0.0112801,0.0177908,-0.010026,-0.00281023,-0.00418158,0.00609503,-0.00233496,0.00157716,0.00158122,0.107604,0.0386012,-0.340588,0.0060261,-0.105993,0.0662642,-0.0382598,-0.0330268,0.263043,0.0779055,0.00235927,-0.00584928,-0.140631,0.0858428,0.0207107,0.183684,-0.00281023,-0.00418158,0.00609503,-0.00233496,0.00157716,0.00158122,0,0,0,0,0,0,0,0,0,-0.000521049,2.47396e-05,-2.44188e-07,-0.000481305,-0.00034886,1.86893e-05,0.000223637,-7.36022e-06,0.000312507,0.000159657,-3.5361e-05,-4.27561e-05
1163,0.00051179,0.0256491,-0.0338649,-0.0292892,0.0233364,0.0233364,0.0233364,0.0233364,0.0233364,0.0233364,0.0233364,0.0233364,0.0233364,-0.773336,-0.893473,-0.12388,1.18815,0.0256491,-0.0338649,-0.0292892,0.0430527,-0.0975331,0.0620558,-0.0956653,-0.118294,0.0433362,0.0233364,-1.28224,-7.5138,-0.248188,-1.29412,-0.672522,-0.334181,-10.2295,8.16067,-0.0134207,-0.390951,-0.142672,-0.26971,1.71894,0.103602,10.5285,0.0430527,-0.0975331,0.0620558,-0.0956653,-0.118294,0.0433362,0,0,0,0,0,0,0,0,0,-0.00130818,-0.00480977,-0.000371259,-0.00317722,-0.000714535,-0.00308596,0.000840722,-0.000741626,0.000483923,0.000455972,-0.00186803,0.00212085
1164,0.00051179,-0.00174354,0.00137695,-0.000494939,0.076313,0.076313,0.076313,0.076313,0.076313,0.076313,0.076313,0.076313,0.076313,-0.923687,-0.396924,-0.677167,1.21215,-0.00174354,0.00137695,-0.000494939,-0.00286214,0.00437392,0.00015617,-0.00650133,0.00035905,0.000825887,0.076313,-0.00145464,0.0294681,-0.00233322,0.0143463,-0.00137252,-0.00240207,0.0128059,-0.026352,0.00279055,0.00207834,-0.00241218,-0.00473455,-0.0178015,-0.00141819,-0.00757637,-0.00286214,0.00437392,0.00015617,-0.00650133,0.00035905,0.000825887,0,0,0,0,0,0,0,0,0,-0.000421815,-1.16379e-05,0.000239296,-0.000331434,-0.000304962,-0.000218889,-8.60788e-06,-6.13868e-05,0.000330247,0.000308975,4.08555e-05,6.98446e-06
1165,0.00051179,0.00151435,0.00627524,-0.00807953,0.0920731,0.0920731,0.0920731,0.0920731,0.0920731,0.0920731,0.0920731,0.0920731,0.0920731,-0.842073,0.605171,0.419576,1.11864,0.00151435,0.00627524,-0.00807953,-0.0027334,-0.00174293,0.00128474,-0.00526226,0.00187999,0.0142446,0.0920731,0.00449969,-0.125762,-0.00232708,0.0147908,-0.0178481,-0.0125172,0.17764,0.142095,-0.0160015,-0.0198706,0.00195225,0.0429736,-0.00119544,0.0195007,-0.212534,-0.0027334,-0.00174293,0.00128474,-0.00526226,0.00187999,0.0142446,0,0,0,0,0,0,0,0,0,-0.000451557,-7.60845e-06,0.000434217,-0.000445638,-0.000364983,-0.000474917,-0.000122759,2.41304e-05,0.000296436,0.000333314,1.4192e-05,0.000152287
1166,0.00051179,-0.0115242,-0.0117218,-0.016495,0.0889611,0.0889611,0.0889611,0.0889611,0.0889611,0.0889611,0.0889611,0.0889611,0.0889611,-0.838961,0.28482,-0.089027,0.890452,-0.0115242,-0.0117218,-0.016495,-0.0121976,0.0114879,-0.0118357,0.0115157,0.00944477,-0.00782731,0.0889611,-0.474387,-3.97447,-0.17518,-1.49056,-0.310907,0.0604077,-0.411343,4.2969,-0.132517,-0.187422,0.0182235,0.0506226,1.6897,0.099695,0.377216,-0.0121976,0.0114879,-0.0118357,0.0115157,0.00944477,-0.00782731,0,0,0,0,0,0,0,0,0,-0.000760816,-0.00183786,-0.000920888,0.000979702,-0.00038358,-0.000716036,-9.94727e-06,0.00030637,0.000374138,-0.000493983,-2.96876e-05,0.0010544
1167,0.00051179,0.00109792,0.00249144,0.00286668,0.0870084,0.0870084,0.0870084,0.0870084,0.0870084,0.0870084,0.0870084,0.0870084,0.0870084,-0.912992,-0.346076,0.667851,1.18294,0.00109792,0.00249144,0.00286668,-0.00155775,-0.00023911,-0.000363732,0.00513719,0.00209531,0.00175613,0.0870084,0.00136097,-0.0156791,0.000203796,0.00251686,-0.00130905,-0.001721,0.0286891,0.0158902,0.000630302,-1.15817e-05,-0.000712949,0.00130367,-0.00499672,0.0029526,-0.0328594,-0.00155775,-0.00023911,-0.000363732,0.00513719,0.00209531,0.00175613,0,0,0,0,0,0,0,0,0,-0.000602864,-1.28448e-05,-0.000213675,-0.000234893,-0.000345701,0.000213322,1.69765e-05,2.97919e-05,0.000318483,0.000214046,-1.59683e-05,1.16828e-05
1168,0.00051179,0.0758548,0.0510534,0.0218892,0.00555343,0.00555343,0.00555343,0.00555343,0.00555343,0.00555343,0.00555343,0.00555343,0.00555343,-0.755553,-0.822041,0.305784,1.15763,0.0758548,0.0510534,0.0218892,0.0796273,-0.0215274,0.0312381,-0.0142729,-0.0594328,-0.0607204,0.00555343,-0.000128672,-0.0690497,0.0010025,-0.112028,0.00393104,-0.000215337,0.186356,-0.0107361,-0.0263561,-0.138218,-0.0130313,-0.00921997,0.199193,0.0172392,-0.199025,0.0796273,-0.0215274,0.0312381,-0.0142729,-0.0594328,-0.0607204,0,0,0,0,0,0,0,0,0,-0.000253454,0.000402814,-0.000664864,-0.000886861,-0.000199491,0.000459615,-0.000197824,-0.000438727,0.000399359,0.00119709,-0.000285914,-0.000212085
1169,0.00051179,0.000691321,-0.00813896,0.0115184,0.00249782,0.00249782,0.00249782,0.00249782,0.00249782,0.00249782,0.00249782,0.00249782,0.00249782,-0.997502,0.726774,-0.91469,1.53619,0.000691321,-0.00813896,0.0115184,-0.000129871,-0.000291506,0.00537429,-0.0076012,-0.0109673,0.00168856,0.00249782,0.00197668,-0.0119887,-0.000962965,0.00350607,0.000899959,0.00145885,-0.0082853,0.0103974,-0.000743704,0.00408311,0.000327741,-0.000614473,0.000549788,-0.00212615,-0.00261859,-0.000129871,-0.000291506,0.00537429,-0.0076012,-0.0109673,0.00168856,0,0,0,0,0,0,0,0,0,-0.000413574,1.72368e-05,-0.000267677,-0.000470357,-0.000342423,0.000255132,-3.37218e-05,7.8215e-05,0.000237405,0.000538688,-0.000184611,5.81475e-06
1170,0.00051179,0.00138743,0.00322902,-0.00046994,0.0901292,0.0901292,0.0901292,0.0901292,0.0901292,0.0901292,0.0901292,0.0901292,0.0901292,-0.840129,-0.163865,0.55023,1.01756,0.00138743,0.00322902,-0.00046994,-0.0021567,0.000829117,6.92904e-07,-0.000840622,0.00129274,0.00381557,0.0901292,0.00161059,-0.0261174,-0.000110082,0.00911822,1.57557e-05,-0.0018483,0.0292836,0.0247142,-0.00269737,-0.00284462,-0.000330002,0.000330528,-0.00950262,0.00343531,-0.0291442,-0.0021567,0.000829117,6.92904e-07,-0.000840622,0.00129274,0.00381557,0,0,0,0,0,0,0,0,0,-0.000609055,-6.38452e-06,-0.000121248,-0.000207798,-0.000337118,0.000128439,-2.13439e-05,3.95395e-05,0.000325412,0.000189321,-2.99121e-05,3.26004e-05
1171,0.00051179,0.0170469,0.048878,0.0515004,0.0696239,0.0696239,0.0696239,0.0696239,0.0696239,0.0696239,0.0696239,0.0696239,0.0696239,-0.819624,-0.765634,0.0765398,1.1242,0.0170469,0.048878,0.0515004,0.00915152,-0.00576969,0.0140429,0.014307,-0.00230999,0.00930113,0.0696239,1.14355,12.3764,0.131078,1.00224,-0.812026,0.36078,0.0895374,-11.5814,0.0631167,0.514544,0.0473585,-0.0452794,-1.56566,-0.297054,-0.0957584,0.00915152,-0.00576969,0.0140429,0.014307,-0.00230999,0.00930113,0,0,0,0,0,0,0,0,0,-5.61252e-05,0.00467614,0.000198585,0.00425392,-0.000251079,0.0010545,-0.00070023,0.00112667,0.000458993,-0.000505691,-0.000676184,-0.00252611
1172,0.00051179,-0.085319,-0.0219931,0.075428,0.00029931,0.00029931,0.00029931,0.00029931,0.00029931,0.00029931,0.00029931,0.00029931,0.00029931,-0.750299,-0.0611138,0.0382362,0.753755,-0.085319,-0.0219931,0.075428,-0.00154813,-0.0179398,0.0272097,-0.00446403,0.00237418,0.00239564,0.00029931,0.143524,0.423641,-0.0356878,-0.371192,0.894017,0.127549,-1.00059,-1.23234,0.165307,-0.144662,-0.0517073,0.807691,0.537847,-0.011701,0.117475,-0.00154813,-0.0179398,0.0272097,-0.00446403,0.00237418,0.00239564,0,0,0,0,0,0,0,0,0,-0.000479549,0.000371209,-0.000251108,0.00173675,-0.00036847,-0.000285169,0.000465545,-0.000555769,0.000396393,-0.000189158,6.24375e-05,-0.000385196
1173,0.00051179,0.00668914,0.0129203,-0.00602552,0.0209844,0.0209844,0.0209844,0.0209844,0.0209844,0.0209844,0.0209844,0.0209844,0.0209844,-0.770984,-0.220128,0.590178,0.995582,0.00668914,0.0129203,-0.00602552,0.00215057,-0.00536903,0.00385551,-0.00936817,-0.00179007,0.000703387,0.0209844,0.000359371,-0.0127076,0.000336356,-0.00339806,0.000707509,9.72301e-07,0.0164722,0.0053109,-0.00920432,-0.00705489,-0.000615985,-0.000143222,-0.0024673,0.00099488,-0.0103035,0.00215057,-0.00536903,0.00385551,-0.00936817,-0.00179007,0.000703387,0,0,0,0,0,0,0,0,0,-0.00060869,2.91239e-05,-0.000151558,-0.000206424,-0.000324124,0.000101231,-7.62883e-05,1.81149e-05,0.000343293,0.000244988,-4.21754e-05,2.50655e-05
1174,0.00051179,-0.127311,0.0249486,0.0586277,0.0471602,0.0471602,0.0471602,0.0471602,0.0471602,0.0471602,0.0471602,0.0471602,0.0471602,-0.79716,0.759702,0.174237,1.11489,-0.127311,0.0249486,0.0586277,0.0192234,-0.00237329,-0.00887359,0.0106118,-0.0211681,-0.0312065,0.0471602,0.4639,-5.33744,-0.0965657,0.345252,-0.386193,-0.368069,-0.540926,5.85095,0.0180781,-0.309535,0.101523,0.558379,-0.0606657,0.283859,-0.0760809,0.0192234,-0.00237329,-0.00887359,0.0106118,-0.0211681,-0.0312065,0,0,0,0,0,0,0,0,0,-3.08231e-05,0.00153354,5.38687e-05,-0.00367071,-0.00048309,-0.00104326,-0.000738626,0.000174635,0.000251785,-9.87161e-05,0.000628917,0.000381187
1175,0.00051179,0.0125268,0.0140578,0.00186193,0.078801,0.078801,0.078801,0.078801,0.078801,0.078801,0.078801,0.078801,0.078801,-0.828801,-0.0837735,0.278325,0.87829,0.0125268,0.0140578,0.00186193,0.00162518,-0.00379455,0.000465954,3.20242e-05,0.00890365,-0.00109411,0.078801,0.0124958,-0.387273,-0.000250392,-0.00805859,0.0233438,-0.023738,0.351417,0.351402,0.0505142,0.0716807,0.00484441,-0.0938444,-0.0776799,0.0268003,-0.259435,0.00162518,-0.00379455,0.000465954,3.20242e-05,0.00890365,-0.00109411,0,0,0,0,0,0,0,0,0,-0.00053259,-3.36723e-05,-9.03418e-05,-0.000477682,-0.000360036,4.98924e-05,0.000148454,0.000137399,0.000319704,0.000244962,8.19937e-08,2.42541e-05
1176,0.00051179,-0.00328126,0.000439441,0.000382903,0.0392027,0.0392027,0.0392027,0.0392027,0.0392027,0.0392027,0.0392027,0.0392027,0.0392027,-0.960797,0.244137,0.915529,1.34942,-0.00328126,0.000439441,0.000382903,-0.00208004,-0.000600953,-0.00265863,0.0096248,-0.00193699,0.00407737,0.0392027,0.00120814,-0.00043327,0.000190325,-0.00412977,0.000245755,8.55327e-05,0.00679981,0.00346878,0.00106168,-0.00201908,-0.000268066,-0.000554644,0.00570941,-0.00152066,-0.00662807,-0.00208004,-0.000600953,-0.00265863,0.0096248,-0.00193699,0.00407737,0,0,0,0,0,0,0,0,0,-0.000688635,-1.8634e-05,9.23399e-05,-0.000285385,-0.000326091,-9.64462e-05,3.91578e-05,1.09176e-05,0.000294641,0.000259654,-3.29681e-05,-1.49099e-06
1177,0.00051179,0.0015939,-0.00369189,-0.0035861,0.0795649,0.0795649,0.0795649,0.0795649,0.0795649,0.0795649,0.0795649,0.0795649,0.0795649,-0.829565,0.907212,0.695879,1.41261,0.0015939,-0.00369189,-0.0035861,0.00316632,2.05189e-05,-0.00149266,0.00145354,0.00550107,0.00372085,0.0795649,0.000482872,-0.00217068,0.000422545,0.000978117,-0.002244,0.000290375,0.00416878,0.00282078,0.000177009,0.00546111,-0.000736895,-0.000544059,-0.00274733,-0.00115611,-3.86211e-05,0.00316632,2.05189e-05,-0.00149266,0.00145354,0.00550107,0.00372085,0,0,0,0,0,0,0,0,0,-0.000450686,9.19464e-06,0.000367394,-0.000495136,-0.000358546,-0.000362963,-8.98601e-07,9.0084e-05,0.000313953,0.000483113,-4.24423e-05,3.77239e-06
1178,0.00051179,0.00545879,-0.00998769,-0.00938481,0.0759828,0.0759828,0.0759828,0.0759828,0.0759828,0.0759828,0.0759828,0.0759828,0.0759828,-0.924017,0.202415,-0.244456,0.977005,0.00545879,-0.00998769,-0.00938481,-0.00100545,-0.00279597,-0.00127773,-0.000356816,0.00411117,-0.000898112,0.0759828,-0.111729,0.248027,-0.0283927,0.0879024,-0.109018,-0.0622578,-0.29923,-0.144468,-0.0333372,0.030271,-0.0210167,-0.075053,-0.108186,-0.00534878,0.383668,-0.00100545,-0.00279597,-0.00127773,-0.000356816,0.00411117,-0.000898112,0,0,0,0,0,0,0,0,0,-0.00057105,-0.000387509,-0.000228991,-0.00058654,-0.000334943,-8.28959e-05,7.694e-06,-9.88573e-05,0.000320278,-4.88151e-05,-7.01982e-05,0.00014493
1179,0.00051179,-0.00196528,0.0123525,0.0358973,0.0928172,0.0928172,0.0928172,0.0928172,0.0928172,0.0928172,0.0928172,0.0928172,0.0928172,-0.885437,-0.907183,0.029425,1.26801,-0.00196528,0.0123525,0.0358973,0.000841036,-0.0127928,-0.00534257,0.0140501,0.0156436,0.00192785,0.0928172,0.198387,2.18886,0.0462548,0.457528,0.248195,0.647748,3.38568,-2.43509,0.0039684,0.0277797,0.0692826,0.273911,-0.49766,-0.113286,-3.69549,0.000841036,-0.0127928,-0.00534257,0.0140501,0.0156436,0.00192785,0,0,0,0,0,0,0,0,0,-0.000431351,0.000873963,-0.000191134,0.00413706,-0.000329787,0.000525753,-3.20871e-05,0.00139939,0.000549436,0.002287,-0.000550127,-0.000678969
1180,0.00051179,-0.00948977,-0.00845648,0.0282718,0.0398872,0.0398872,0.0398872,0.0398872,0.0398872,0.0398872,0.0398872,0.0398872,0.0398872,-0.960113,0.349409,0.446408,1.11498,-0.00948977,-0.00845648,0.0282718,0.00417424,-0.00350809,-0.00474779,0.0114023,-0.00162893,-0.000677221,0.0398872,0.019458,-0.15789,0.00314827,-0.0401861,-0.000496756,-0.0219082,0.0801575,0.167876,0.0143467,-0.0722825,-0.00910174,-0.0214301,0.120925,0.0191887,-0.0869992,0.00417424,-0.00350809,-0.00474779,0.0114023,-0.00162893,-0.000677221,0,0,0,0,0,0,0,0,0,-0.000549965,3.98234e-05,0.000236073,-0.000301517,-0.000315988,-0.000239671,5.04073e-05,-7.30102e-05,0.000287019,3.49565e-05,-3.42965e-05,1.42196e-05
1181,0.00051179,0.016812,-0.0304924,-0.00735009,0.0656598,0.0656598,0.0656598,0.0656598,0.0656598,0.0656598,0.0656598,0.0656598,0.0656598,-0.921074,0.93434,-0.221279,1.33054,0.016812,-0.0304924,-0.00735009,-0.00193685,-0.0100443,-0.0130604,-0.0102109,-0.00720716,-0.00184236,0.0656598,-0.108436,-0.606564,0.0401959,0.0629994,-0.358237,0.0615128,-0.981967,0.94799,-0.00489928,0.0505764,0.024022,-0.211261,-0.0830834,0.0901739,1.20058,-0.00193685,-0.0100443,-0.0130604,-0.0102109,-0.00720716,-0.00184236,0,0,0,0,0,0,0,0,0,-0.000938557,-0.000508998,-0.000957957,-0.000422325,-0.000200922,0.00125947,-3.26838e-05,0.000285177,0.000258967,0.000906849,-0.000117029,0.000484525
1182,0.00051179,0.00493616,-0.00376053,0.00696272,0.0115152,0.0115152,0.0115152,0.0115152,0.0115152,0.0115152,0.0115152,0.0115152,0.0115152,-0.794357,-0.849541,0.988485,1.52638,0.00493616,-0.00376053,0.00696272,0.00315569,0.00154362,0.00291568,0.00348235,-0.00326507,0.00748097,0.0115152,0.000797942,-0.00279052,-0.000590496,0.00069036,0.000940605,0.000246674,-0.00275279,-0.00308624,-0.00162485,-0.000506475,-0.000211583,-0.00103036,0.00357665,-0.000976417,-0.00317957,0.00315569,0.00154362,0.00291568,0.00348235,-0.00326507,0.00748097,0,0,0,0,0,0,0,0,0,-0.000571363,5.55778e-06,-0.000299248,-0.000430947,-0.000315005,0.00030878,-4.92293e-06,-4.30716e-05,0.000365347,0.000462571,8.30504e-06,1.83124e-05
1183,0.00051179,0.000935161,-0.00437216,-0.00245057,0.104485,0.104485,0.104485,0.104485,0.104485,0.104485,0.104485,0.104485,0.104485,-0.895515,-0.613374,-0.860907,1.3854,0.000935161,-0.00437216,-0.00245057,-0.00500667,0.00293714,0.00214867,-0.00592848,0.000252185,0.000551521,0.104485,6.65933e-05,0.00604834,-0.000900291,0.00434958,-7.28393e-06,0.000722796,-0.00222196,-0.00697622,-0.00151345,0.000107943,2.66237e-05,-0.000656923,-8.53591e-05,-0.00101229,0.00532945,-0.00500667,0.00293714,0.00214867,-0.00592848,0.000252185,0.000551521,0,0,0,0,0,0,0,0,0,-0.000414021,-9.8818e-06,0.000283626,-0.000398023,-0.000295723,-0.000263257,-2.23911e-05,-8.71544e-05,0.000324681,0.000426737,8.99424e-05,1.25147e-05
1184,0.00051179,-0.0130096,-0.00441141,-0.0052287,0.105723,0.105723,0.105723,0.105723,0.105723,0.105723,0.105723,0.105723,0.105723,-0.894277,-0.815668,-0.399683,1.27467,-0.0130096,-0.00441141,-0.0052287,-0.00689122,0.00569642,0.00351043,-0.00288971,-0.0041139,-0.00262133,0.105723,-0.00688909,0.158887,-0.00766229,0.0798135,-0.00173747,-0.010657,0.142825,-0.14414,0.00669707,0.0426876,-0.0130444,-0.0100916,-0.11809,-0.00847232,-0.127505,-0.00689122,0.00569642,0.00351043,-0.00288971,-0.0041139,-0.00262133,0,0,0,0,0,0,0,0,0,-0.000713401,-4.45939e-05,0.000615212,-0.00060535,-0.000367219,-0.000634871,4.33444e-05,-0.000307302,0.000302859,0.000533884,0.000135718,-3.11606e-05
1185,0.00051179,0.00479698,0.0106196,-0.00515401,0.120236,0.120236,0.120236,0.120236,0.120236,0.120236,0.120236,0.120236,0.120236,-0.879764,-0.5498,-0.125019,1.04494,0.00479698,0.0106196,-0.00515401,0.00923932,-0.0156868,0.0125277,0.0110997,-0.00899679,0.00773677,0.120236,-0.77103,-5.57208,0.0604975,0.771931,0.747604,-0.0874758,-1.93459,4.81968,-0.104477,-0.211867,0.0113998,-0.0304617,-0.570684,0.110799,1.9702,0.00923932,-0.0156868,0.0125277,0.0110997,-0.00899679,0.00773677,0,0,0,0,0,0,0,0,0,-0.000873633,-0.00295899,0.000475526,6.93751e-05,-0.000343228,-2.74198e-05,0.000383073,1.00286e-05,0.000374123,-0.000818856,1.40016e-05,0.00144264
1186,0.00051179,0.0112596,0.0259043,0.00308609,0.102261,0.102261,0.102261,0.102261,0.102261,0.102261,0.102261,0.102261,0.102261,-0.897739,0.496853,0.0395802,1.02682,0.0112596,0.0259043,0.00308609,0.00657108,-0.00210707,-0.00153176,0.00680053,0.0051809,9.61721e-05,0.102261,0.34597,2.46318,0.021378,0.458401,-0.219526,0.278499,2.03038,-2.25491,0.060276,-0.0299296,0.0338077,-0.32699,-0.454375,-0.0815502,-1.70647,0.00657108,-0.00210707,-0.00153176,0.00680053,0.0051809,9.61721e-05,0,0,0,0,0,0,0,0,0,-0.000464894,0.00137252,0.000150494,0.00272658,-0.000287557,4.22155e-05,-5.48061e-05,0.000277798,0.000452012,4.31006e-05,0.000112088,-0.000797459
1187,0.00051179,-0.00513006,-0.0162137,-0.0210991,0.0474153,0.0474153,0.0474153,0.0474153,0.0474153,0.0474153,0.0474153,0.0474153,0.0474153,-0.952585,-0.1238,-0.359136,1.02554,-0.00513006,-0.0162137,-0.0210991,-0.00757978,-0.00083716,-0.00626713,0.00311632,-0.00594482,-0.00200951,0.0474153,-0.0226283,0.132932,0.005188,-0.0638457,-0.0203146,-0.0242096,0.00966482,-0.107487,-0.0248569,0.0107442,0.00201619,-0.0249916,0.0693153,-0.010335,0.0364259,-0.00757978,-0.00083716,-0.00626713,0.00311632,-0.00594482,-0.00200951,0,0,0,0,0,0,0,0,0,-0.000494048,-7.6856e-05,6.47444e-05,-0.000431116,-0.000316525,-2.1236e-05,-3.45184e-05,-1.83661e-05,0.000324003,0.000126348,-2.09202e-05,1.24619e-05
1188,0.00051179,-0.0377397,0.0140704,0.0135916,0.00495011,0.00495011,0.00495011,0.00495011,0.00495011,0.00495011,0.00495011,0.00495011,0.00495011,-0.75495,0.322885,-0.420696,0.922599,-0.0377397,0.0140704,0.0135916,-0.0229742,0.00234956,-0.0248056,0.0166337,0.00490806,0.00138227,0.00495011,6.47455e-05,0.0348686,-8.53464e-05,0.000649345,0.000723522,-0.000674825,0.029278,0.00214757,0.0226407,0.00179928,-0.00600719,0.00969002,-0.016519,-0.0102143,-0.0525596,-0.0229742,0.00234956,-0.0248056,0.0166337,0.00490806,0.00138227,0,0,0,0,0,0,0,0,0,-0.000509329,-0.000123239,-0.000248641,-0.000484393,-0.000267649,0.000271283,0.00018768,2.28934e-05,0.000369318,0.000229588,-3.38847e-05,-5.28519e-05
1189,0.00051179,0.020007,-0.00990354,-0.00695258,0.0665924,0.0665924,0.0665924,0.0665924,0.0665924,0.0665924,0.0665924,0.0665924,0.0665924,-0.933408,0.318528,0.27582,1.0241,0.020007,-0.00990354,-0.00695258,0.00479779,-0.00510498,0.00702403,0.00658772,0.005954,0.00603468,0.0665924,0.11156,-0.433457,0.0250914,-0.0392181,0.00216445,-0.0680135,-0.225572,0.411286,0.0532763,-0.0812326,-0.0323588,-0.0495159,0.130354,0.0182714,0.282041,0.00479779,-0.00510498,0.00702403,0.00658772,0.005954,0.00603468,0,0,0,0,0,0,0,0,0,-0.000490986,0.000350411,0.000273183,-0.000428563,-0.000301445,-7.33185e-05,6.79416e-05,-0.000213478,0.000289053,-0.000181332,-5.05698e-05,-0.000109848
1190,0.00051179,0.00376137,0.00766048,-0.00783205,0.067461,0.067461,0.067461,0.067461,0.067461,0.067461,0.067461,0.067461,0.067461,-0.932539,-0.149101,-0.556651,1.09623,0.00376137,0.00766048,-0.00783205,-0.00370188,0.00184507,0.0013943,-0.00665528,0.000564949,-0.00155706,0.067461,-0.00273363,0.0464764,-0.00223332,0.00501156,-0.000645509,-0.00667191,0.0434759,-0.0495923,0.0046014,-0.000844494,-0.00539364,-0.00107426,-0.0118275,-0.0039219,-0.0345696,-0.00370188,0.00184507,0.0013943,-0.00665528,0.000564949,-0.00155706,0,0,0,0,0,0,0,0,0,-0.000420906,-1.60602e-05,8.39257e-05,-0.000331271,-0.0003097,-8.78082e-05,5.84795e-06,-3.98892e-05,0.000331126,0.000278495,-8.39773e-06,-1.12775e-05
1191,0.00051179,-0.00132093,-0.000761351,-0.0112717,0.053636,0.053636,0.053636,0.053636,0.053636,0.053636,0.053636,0.053636,0.053636,-0.822155,0.946165,-0.946364,1.5706,-0.00132093,-0.000761351,-0.0112717,-0.00527136,-0.00158925,-0.000288397,-0.00272388,0.000245337,-0.00125452,0.053636,0.00156768,-0.00896823,-0.000268482,0.0016563,0.00170396,0.00052914,-0.00430186,0.0085852,2.37953e-05,0.000148035,0.000325425,0.00189297,-0.00104298,-0.000183713,0.0136806,-0.00527136,-0.00158925,-0.000288397,-0.00272388,0.000245337,-0.00125452,0,0,0,0,0,0,0,0,0,-0.000456087,-9.46996e-06,-0.000286089,-0.000571253,-0.000302905,0.000267512,-4.45196e-06,0.000125462,0.00030119,0.00057366,-0.000119755,1.8573e-06
1192,0.00051179,0.00698034,-0.0126915,0.00171137,0.113929,0.113929,0.113929,0.113929,0.113929,0.113929,0.113929,0.113929,0.113929,-0.863929,-0.285745,-0.00484014,0.909971,0.00698034,-0.0126915,0.00171137,0.00595916,0.00117961,0.0113525,-0.00146838,-0.00262486,-0.00459537,0.113929,-0.0334141,-0.251594,0.0134772,-0.0207311,0.0273518,0.228926,1.59621,0.217262,0.00374286,0.0448829,-0.112056,0.152543,-0.0114603,-0.00334493,-1.75046,0.00595916,0.00117961,0.0113525,-0.00146838,-0.00262486,-0.00459537,0,0,0,0,0,0,0,0,0,-0.00056719,-9.90583e-05,0.000114595,0.00227848,-0.000357205,3.19725e-05,4.95886e-05,-0.000892517,0.00044927,0.000124304,-0.000254294,-1.48528e-06
1193,0.00051179,0.00218101,-0.00225023,-0.00738663,0.0962893,0.0962893,0.0962893,0.0962893,0.0962893,0.0962893,0.0962893,0.0962893,0.0962893,-0.846289,-0.628793,-0.876179,1.37087,0.00218101,-0.00225023,-0.00738663,-0.0045928,0.0017425,0.00204952,-0.00373754,-0.00184764,0.00106611,0.0962893,0.000452593,0.00377186,-0.00068032,0.00340137,0.000184488,0.000753418,-0.00100328,-0.00613736,-0.000989171,0.000456663,-0.000137188,-0.000128098,-0.0016078,-0.000353292,0.00851801,-0.0045928,0.0017425,0.00204952,-0.00373754,-0.00184764,0.00106611,0,0,0,0,0,0,0,0,0,-0.00041265,-1.12925e-05,0.000280781,-0.000410443,-0.000307167,-0.000270159,-1.4225e-05,-9.77715e-05,0.000344552,0.000438473,7.79232e-05,1.29727e-05
1194,0.00051179,0.0261744,0.00616281,-0.00104786,0.0651968,0.0651968,0.0651968,0.0651968,0.0651968,0.0651968,0.0651968,0.0651968,0.0651968,-0.934803,0.36626,0.338412,1.05949,0.0261744,0.00616281,-0.00104786,0.00362185,-0.00426655,-0.000298657,0.00529111,0.00330964,0.00189217,0.0651968,0.0573965,-0.430516,0.0119385,-0.0466982,-0.00991865,-0.0498697,0.0410621,0.41426,0.0293143,-0.120856,-0.0227771,-0.0169397,0.161392,0.0295952,-0.0230745,0.00362185,-0.00426655,-0.000298657,0.00529111,0.00330964,0.00189217,0,0,0,0,0,0,0,0,0,-0.000505552,0.000158425,0.000278668,-0.000426859,-0.000310296,-0.000201949,2.63601e-05,-0.000142584,0.000284292,-7.48242e-05,-5.20915e-05,1.07702e-05
1195,0.00051179,0.00328931,-0.00419758,0.0017268,0.0561629,0.0561629,0.0561629,0.0561629,0.0561629,0.0561629,0.0561629,0.0561629,0.0561629,-0.943837,0.0787204,0.463712,1.05454,0.00328931,-0.00419758,0.0017268,-0.00206581,0.00125202,0.0010296,0.00595298,-0.00446611,0.00374182,0.0561629,0.0105909,-0.0895105,0.000220306,-0.0239955,0.0042249,-0.0126698,0.0712106,0.0819963,0.0206082,-0.0189406,0.000195852,-0.0181849,0.0471337,0.0135937,-0.0547524,-0.00206581,0.00125202,0.0010296,0.00595298,-0.00446611,0.00374182,0,0,0,0,0,0,0,0,0,-0.000594638,-1.78614e-05,6.33705e-05,-0.000260184,-0.000336135,-4.86472e-05,7.23194e-05,-8.99236e-06,0.000297308,0.000143782,-3.37102e-05,2.61909e-05
1196,0.00051179,0.0356312,-0.0130457,0.0227994,0.045949,0.045949,0.045949,0.045949,0.045949,0.045949,0.045949,0.045949,0.045949,-0.954051,0.306784,0.210296,1.02399,0.0356312,-0.0130457,0.0227994,0.012644,-0.00924439,0.00486083,0.00566125,0.0149362,0.00179493,0.045949,0.192359,0.440479,0.0401638,0.115223,-0.0235201,-0.0612659,-0.588341,-0.45259,0.0803243,-0.071014,-0.0277476,-0.042446,-0.0311632,-0.0216,0.607988,0.012644,-0.00924439,0.00486083,0.00566125,0.0149362,0.00179493,0,0,0,0,0,0,0,0,0,-0.000482768,0.000712111,0.000239398,-0.000242625,-0.000289584,6.97961e-05,0.000117024,-0.000149255,0.000312299,-0.000321425,2.11407e-05,-0.000411929
1197,0.00051179,0.313144,0.222094,0.0833793,0.00133125,0.00133125,0.00133125,0.00133125,0.00133125,0.00133125,0.00133125,0.00133125,0.00133125,-0.751331,-0.892842,0.177745,1.18036,0.313144,0.222094,0.0833793,-0.0626528,0.197896,0.0255885,-0.141991,-0.297569,-0.0782645,0.00133125,0.0219799,-4.43786,0.024644,-1.95022,0.0864613,-0.041675,5.48127,4.03825,-0.0177205,-0.342436,-0.0799397,-0.331856,2.07056,0.0939476,-5.23279,-0.0626528,0.197896,0.0255885,-0.141991,-0.297569,-0.0782645,0,0,0,0,0,0,0,0,0,3.05474e-07,9.75287e-06,-0.000176918,-0.00378726,-4.01083e-05,0.00240232,-0.000585442,-0.00211032,0.000487849,0.00362639,-0.00166477,0.000291533
1198,0.00051179,0.0310633,-0.0259095,-0.00188482,0.0713407,0.0713407,0.0713407,0.0713407,0.0713407,0.0713407,0.0713407,0.0713407,0.0713407,-0.928659,-0.536345,0.0541743,1.07378,0.0310633,-0.0259095,-0.00188482,0.0110517,-0.0133449,-0.00483232,0.0114597,-0.0104049,0.0025377,0.0713407,0.378663,2.50827,0.0089385,-0.358909,-0.244126,0.206647,1.39706,-2.2952,0.0563423,0.0990346,-0.0232847,-0.320184,0.285784,-0.0773461,-1.07499,0.0110517,-0.0133449,-0.00483232,0.0114597,-0.0104049,0.0025377,0,0,0,0,0,0,0,0,0,-0.000463434,0.00150699,-0.000186867,0.00185905,-0.000392938,0.000142803,-0.000102577,-0.000282624,0.00046517,0.000159098,-5.42712e-05,-0.000815628
1199,0.00051179,0.0052962,0.000190801,-0.00917151,0.0302863,0.0302863,0.0302863,0.0302863,0.0302863,0.0302863,0.0302863,0.0302863,0.0302863,-0.780286,0.914168,-0.928719,1.5189,0.0052962,0.000190801,-0.00917151,-0.00500107,0.000166601,0.000446003,-0.00264215,0.00293255,-0.00314842,0.0302863,0.00114359,-0.0103862,-0.000270091,0.00262438,0.000681237,0.000380762,-0.00847957,0.00440876,0.000431238,-0.000500105,0.000414773,0.00238034,-0.00231507,0.000537921,0.0152707,-0.00500107,0.000166601,0.000446003,-0.00264215,0.00293255,-0.00314842,0,0,0,0,0,0,0,0,0,-0.000457279,-9.27329e-06,-0.000283416,-0.000550776,-0.000289107,0.000282381,-1.04046e-06,0.00013814,0.000328414,0.000559044,-0.000104667,-3.0384e-06
1200,0.00051179,-0.00972561,-0.0054403,-0.00849837,0.00692047,0.00692047,0.00692047,0.00692047,0.00692047,0.00692047,0.00692047,0.00692047,0.00692047,-0.957336,-0.99308,-0.680551,1.53813,-0.00972561,-0.0054403,-0.00849837,0.000514619,-0.00271677,0.00137822,-0.000229456,-0.00374283,-0.0117795,0.00692047,0.000620618,0.0197393,-0.000306986,-0.00229687,-0.00916592,0.000916339,0.0033689,-0.000847752,-0.00115746,0.00686014,0.000621633,-0.0203809,0.000877038,0.000104737,0.0255103,0.000514619,-0.00271677,0.00137822,-0.000229456,-0.00374283,-0.0117795,0,0,0,0,0,0,0,0,0,-0.000637017,1.94375e-05,0.000459974,-0.000619404,-0.000284964,-0.000490211,6.82666e-06,-8.20091e-05,0.000244789,0.000642349,5.07971e-05,-4.46125e-05
1201,0.00051179,0.0718543,-0.0134283,0.0448177,0.0105104,0.0105104,0.0105104,0.0105104,0.0105104,0.0105104,0.0105104,0.0105104,0.0105104,-0.76051,0.199892,0.244756,0.823552,0.0718543,-0.0134283,0.0448177,0.0241569,0.00794682,0.00445984,0.0221442,-0.0393734,-0.0161307,0.0105104,0.00179131,-0.170598,0.00115574,-0.117798,-0.00341787,-0.00390291,0.538165,0.102161,0.00835295,-0.179059,-0.020551,-0.0742446,0.310285,0.0387801,-0.508738,0.0241569,0.00794682,0.00445984,0.0221442,-0.0393734,-0.0161307,0,0,0,0,0,0,0,0,0,-0.00048577,3.84779e-05,0.000338767,-0.000824898,-0.000319118,-0.000247741,6.12225e-05,-0.000496494,0.00033062,0.000830467,-0.00010275,2.19841e-05
1202,0.00051179,-0.00359043,0.0052233,-0.00809643,0.0755712,0.0755712,0.0755712,0.0755712,0.0755712,0.0755712,0.0755712,0.0755712,0.0755712,-0.825571,0.581085,0.362376,1.07263,-0.00359043,0.0052233,-0.00809643,-0.00535987,-0.00566605,-0.000258081,-0.00690385,-0.00115533,0.016966,0.0755712,0.00641711,-0.252585,-0.00151091,0.00676792,-0.0251326,-0.0200904,0.36173,0.281308,-0.0257168,-0.0385994,0.00128563,0.0827214,0.0266082,0.0348912,-0.436355,-0.00535987,-0.00566605,-0.000258081,-0.00690385,-0.00115533,0.016966,0,0,0,0,0,0,0,0,0,-0.000433356,-1.81298e-05,0.000431029,-0.000595059,-0.000369901,-0.000502798,-0.000186519,-1.20414e-05,0.000291064,0.000391575,1.33444e-05,0.00023587
1203,0.00051179,-0.00222658,0.00100553,0.00483783,0.0759891,0.0759891,0.0759891,0.0759891,0.0759891,0.0759891,0.0759891,0.0759891,0.0759891,-0.924011,0.376153,0.597899,1.16309,-0.00222658,0.00100553,0.00483783,-0.000750557,0.00118605,-0.000664897,0.00425212,-0.00345838,0.00577552,0.0759891,0.003316,-0.0404827,-0.00106078,0.016585,-0.00151419,-0.00421011,0.0440779,0.0442234,0.00419481,-0.00967902,-0.000553607,-0.00181594,-0.00791148,0.00629104,-0.0470998,-0.000750557,0.00118605,-0.000664897,0.00425212,-0.00345838,0.00577552,0,0,0,0,0,0,0,0,0,-0.000585727,-1.38023e-05,0.000220033,-0.00025828,-0.000329548,-0.00021878,1.56051e-05,-4.46051e-06,0.000295416,0.00020953,-3.56593e-05,3.37033e-05
1204,0.00051179,-0.010872,0.00011304,0.00680445,0.0363182,0.0363182,0.0363182,0.0363182,0.0363182,0.0363182,0.0363182,0.0363182,0.0363182,-0.786318,-0.451067,-0.399449,0.990615,-0.010872,0.00011304,0.00680445,-0.0235916,0.00196783,0.00725594,0.0127378,0.00429289,0.00533882,0.0363182,-0.00149409,0.0632038,-0.00024002,-0.00186675,0.00211574,-0.00317875,0.140779,-0.0544476,0.0245294,0.0227279,-0.00813853,0.00814007,-0.0209742,-0.0150215,-0.155724,-0.0235916,0.00196783,0.00725594,0.0127378,0.00429289,0.00533882,0,0,0,0,0,0,0,0,0,-0.000546761,-0.000128312,0.000346992,-0.000517198,-0.000368858,-0.000329714,0.000183453,-6.79947e-05,0.000369743,0.00055797,2.95383e-05,-5.12967e-05
1205,0.00051179,-0.00848833,-0.0143099,-0.000783294,0.0715624,0.0715624,0.0715624,0.0715624,0.0715624,0.0715624,0.0715624,0.0715624,0.0715624,-0.821562,0.216403,-0.311559,0.904911,-0.00848833,-0.0143099,-0.000783294,-0.00115318,0.000280235,-0.00406674,-0.00969183,-0.0247144,0.0048635,0.0715624,-0.0106351,0.398604,-0.000180654,0.00917139,0.00136008,-0.0261254,0.496223,-0.391476,0.0187207,0.0926579,-0.0106035,-0.00762165,-0.0875194,-0.0451639,-0.487818,-0.00115318,0.000280235,-0.00406674,-0.00969183,-0.0247144,0.0048635,0,0,0,0,0,0,0,0,0,-0.000544466,-9.25706e-06,-0.00021584,-0.00070216,-0.00031268,0.000216835,9.48285e-05,-0.000247927,0.00033775,0.000400239,-0.000105251,-0.000151817
1206,0.00051179,0.0118981,0.00749104,-0.0209228,0.0193846,0.0193846,0.0193846,0.0193846,0.0193846,0.0193846,0.0193846,0.0193846,0.0193846,-0.980615,0.823173,0.501815,1.37515,0.0118981,0.00749104,-0.0209228,-0.00152687,-0.00789027,-0.00655611,0.00590798,-0.0244854,0.00836381,0.0193846,0.00601609,-0.0614054,-0.00568383,0.016445,0.0135659,-0.00584506,0.0208952,0.0359413,-0.000125187,0.0260071,0.00311977,0.000340458,-0.0499432,0.00258814,-0.000312812,-0.00152687,-0.00789027,-0.00655611,0.00590798,-0.0244854,0.00836381,0,0,0,0,0,0,0,0,0,-0.000386417,-2.04311e-06,0.00051825,-0.000536821,-0.000298316,-0.000653991,4.4248e-06,-3.16677e-05,0.000242539,0.000412809,-0.000181988,3.02706e-05
1207,0.00051179,-0.0123861,0.0705767,-0.0940067,0.00139547,0.00139547,0.00139547,0.00139547,0.00139547,0.00139547,0.00139547,0.00139547,0.00139547,-0.995786,0.998605,0.000396378,1.41025,-0.0123861,0.0705767,-0.0940067,0.0283345,0.0129607,-0.00596401,-0.0121288,0.016118,0.0183692,0.00139547,-0.0408315,-0.10803,-0.00280105,0.0449343,0.156353,0.633233,1.16976,-0.0359369,0.00153576,-0.088749,-0.000543736,0.536168,-0.026762,0.0116665,-1.61192,0.0283345,0.0129607,-0.00596401,-0.0121288,0.016118,0.0183692,0,0,0,0,0,0,0,0,0,-0.000551261,-7.04992e-05,0.00026831,0.00328272,-0.000273371,-0.000166714,-6.09794e-05,1.20684e-05,0.000252143,0.00298998,0.000143674,0.000142164
1208,0.00051179,0.00117798,-0.00469622,-0.000410527,0.114089,0.114089,0.114089,0.114089,0.114089,0.114089,0.114089,0.114089,0.114089,-0.885911,0.676645,-0.596337,1.26424,0.00117798,-0.00469622,-0.000410527,-0.00300834,-0.00193801,0.00115225,-0.000390914,0.000876799,-0.0015535,0.114089,0.000200406,0.0286521,-0.00172966,0.0150157,0.00122145,-0.00231506,0.0260111,-0.0310516,0.00619255,-0.0212545,0.000288702,0.00726276,0.010935,-0.001361,-0.0328633,-0.00300834,-0.00193801,0.00115225,-0.000390914,0.000876799,-0.0015535,0,0,0,0,0,0,0,0,0,-0.000545882,-1.41311e-05,-0.000415836,-0.000471903,-0.000281775,0.00037916,2.89168e-05,0.000121136,0.000301696,0.000460275,-0.000109481,-1.46639e-05
1209,0.00051179,0.000216739,-0.00184745,0.00179808,0.0293805,0.0293805,0.0293805,0.0293805,0.0293805,0.0293805,0.0293805,0.0293805,0.0293805,-0.779381,-0.405944,-0.711754,1.13085,0.000216739,-0.00184745,0.00179808,-0.00818398,0.00362357,0.00318777,0.00901507,-0.00684537,-0.00186033,0.0293805,0.000692382,0.0010849,-0.000673704,0.00799864,-0.000499172,0.000130169,0.0178442,-0.000802471,0.00610171,0.00885372,-0.00188015,-0.00212887,-0.0150049,0.000346091,-0.0175134,-0.00818398,0.00362357,0.00318777,0.00901507,-0.00684537,-0.00186033,0,0,0,0,0,0,0,0,0,-0.000416316,-4.45091e-05,0.000238,-0.000333612,-0.000334734,-0.000208501,6.85328e-05,-0.000101166,0.000380635,0.000366792,1.39105e-05,-1.46223e-05
1210,0.00051179,0.00959665,0.0189715,0.00155342,0.00880137,0.00880137,0.00880137,0.00880137,0.00880137,0.00880137,0.00880137,0.00880137,0.00880137,-0.758801,0.666137,-0.608933,1.17912,0.00959665,0.0189715,0.00155342,-0.00262971,0.000484582,0.00706115,0.0175472,0.0205454,0.0104945,0.00880137,0.000655666,-0.010743,-0.000128977,0.0295617,0.000661838,0.000362098,0.0218541,0.000484464,0.0065643,-0.0364747,-0.00304575,0.0035206,-0.0120584,-0.00223507,-0.0269281,-0.00262971,0.000484582,0.00706115,0.0175472,0.0205454,0.0104945,0,0,0,0,0,0,0,0,0,-0.000539169,-4.49435e-05,-0.000395984,-0.00045189,-0.000234568,0.00039954,8.5484e-05,0.000203473,0.00036256,0.000526122,-2.84765e-05,6.22396e-06
1211,0.00051179,0.161725,0.0656123,-0.0022707,0.00659259,0.00659259,0.00659259,0.00659259,0.00659259,0.00659259,0.00659259,0.00659259,0.00659259,-0.743407,0.272124,-0.0887738,0.79661,0.161725,0.0656123,-0.0022707,0.0226437,0.0177768,0.108796,0.0420857,0.0104116,-0.0067119,0.00659259,-1.12297,-12.6694,-0.456219,-5.67251,-1.26768,-0.155007,-4.87916,13.7753,-0.500905,-0.880339,-0.0519335,-0.172404,6.48723,-0.190589,5.05384,0.0226437,0.0177768,0.108796,0.0420857,0.0104116,-0.0067119,0,0,0,0,0,0,0,0,0,-0.000989296,-0.00347497,-0.00218519,0.00173925,-0.000508869,-0.00219922,-0.000267427,0.000274957,0.00027173,-0.00220136,-0.000690176,0.00104017
1212,0.00051179,0.0161401,-0.0044042,-0.0332573,0.0339758,0.0339758,0.0339758,0.0339758,0.0339758,0.0339758,0.0339758,0.0339758,0.0339758,-0.966024,0.755875,0.175333,1.23907,0.0161401,-0.0044042,-0.0332573,-0.0166694,0.00371864,0.0265471,0.0225815,-0.0367144,0.00997926,0.0339758,0.32427,1.69572,-0.0705358,-0.056476,-0.208006,0.0162608,-0.929273,-1.50385,0.00958709,-0.167177,-0.00113146,0.099189,0.228057,-0.0601665,0.863341,-0.0166694,0.00371864,0.0265471,0.0225815,-0.0367144,0.00997926,0,0,0,0,0,0,0,0,0,-0.000331737,0.00120387,0.000495466,0.000473217,-0.000301803,-0.00116364,-0.000173291,-0.000105524,0.000304401,-4.51372e-05,-0.000272934,-0.00058507
1213,0.00051179,-0.000332036,-0.00530092,0.00533655,0.034349,0.034349,0.034349,0.034349,0.034349,0.034349,0.034349,0.034349,0.034349,-0.965651,0.915162,-0.776765,1.54057,-0.000332036,-0.00530092,0.00533655,0.00255579,-0.00144937,0.00344139,-0.00150837,-0.0102822,-0.00350334,0.034349,0.00162645,-0.00296858,-0.00110065,0.00599956,0.00367692,0.00171255,-0.00954728,-0.000376306,-0.00110805,-0.0017495,0.000334726,0.000108804,0.00105085,-0.00130007,0.00410193,0.00255579,-0.00144937,0.00344139,-0.00150837,-0.0102822,-0.00350334,0,0,0,0,0,0,0,0,0,-0.000543527,2.46469e-05,-0.00035923,-0.000571986,-0.000327522,0.00033373,-9.34643e-06,7.67876e-05,0.000219487,0.000623525,-0.000176263,-2.02813e-05
1214,0.00051179,0.0321116,0.0172817,-0.0472698,0.0203635,0.0203635,0.0203635,0.0203635,0.0203635,0.0203635,0.0203635,0.0203635,0.0203635,-0.770363,-0.866198,-0.0134178,1.15928,0.0321116,0.0172817,-0.0472698,-0.0231277,-0.00616545,-0.126132,-0.0289096,0.0311743,-0.0353968,0.0203635,-0.414926,-3.55879,-0.053351,-0.452254,0.0628715,1.2917,6.52654,3.46381,-0.0126868,-0.14528,0.171462,0.167134,0.580252,0.0806796,-6.64641,-0.0231277,-0.00616545,-0.126132,-0.0289096,0.0311743,-0.0353968,0,0,0,0,0,0,0,0,0,-0.000735536,-0.00168908,-1.32936e-05,0.0117424,-0.000433737,-0.000581871,0.000293211,0.00451779,0.000720285,-8.6764e-05,-0.00249143,0.000727607
1215,0.00051179,-0.000438792,0.00768817,-0.00520337,0.0401939,0.0401939,0.0401939,0.0401939,0.0401939,0.0401939,0.0401939,0.0401939,0.0401939,-0.959806,-0.899977,-0.540924,1.4226,-0.000438792,0.00768817,-0.00520337,0.00257633,-0.00388391,-0.000654876,0.0016639,0.0116495,-0.00529353,0.0401939,0.000330344,0.0271727,-0.00158807,0.0130773,-0.013659,-0.00122894,0.0336505,-0.0130749,-0.00150179,0.00667023,-0.00307509,-0.0312416,-0.0274357,0.0010277,0.00279445,0.00257633,-0.00388391,-0.000654876,0.0016639,0.0116495,-0.00529353,0,0,0,0,0,0,0,0,0,-0.000676759,1.59146e-05,0.000539259,-0.000611832,-0.000297541,-0.000593979,2.19176e-06,-0.000141555,0.000251561,0.000592994,0.0002273,-1.99479e-05
1216,0.00051179,0.00626989,0.00923983,-0.017119,0.0402683,0.0402683,0.0402683,0.0402683,0.0402683,0.0402683,0.0402683,0.0402683,0.0402683,-0.959732,0.325376,-0.607866,1.18172,0.00626989,0.00923983,-0.017119,-0.00454179,-0.00165796,-9.58592e-05,-0.00913441,-0.00240314,0.00392055,0.0402683,-0.00263433,0.0403904,-0.00318473,0.0092946,0.000685005,-0.00538656,0.0349739,-0.0473453,0.00629844,0.00775061,-0.00374436,0.00772129,-0.026285,-0.00342007,-0.0255761,-0.00454179,-0.00165796,-9.58592e-05,-0.00913441,-0.00240314,0.00392055,0,0,0,0,0,0,0,0,0,-0.000431113,-2.49057e-05,-0.000203407,-0.000324014,-0.000307525,0.000154981,-3.20492e-06,8.2507e-07,0.000307888,0.00026919,-6.23001e-05,1.34773e-05
1217,0.00051179,0.0232773,0.0190302,0.00988197,0.0810113,0.0810113,0.0810113,0.0810113,0.0810113,0.0810113,0.0810113,0.0810113,0.0810113,-0.659736,0.385019,-0.0189887,0.764102,0.0232773,0.0190302,0.00988197,-0.0179022,0.00322993,0.00129426,-0.0150746,-0.0166143,0.00338091,0.0810113,-0.645296,-2.27595,-0.272536,-1.91469,0.0684703,0.0308239,-5.84416,2.1842,-0.201746,0.00150773,0.396881,0.509228,1.89415,-0.114341,5.32505,-0.0179022,0.00322993,0.00129426,-0.0150746,-0.0166143,0.00338091,0,0,0,0,0,0,0,0,0,-0.000912026,-0.00217255,-0.00141919,0.0177871,-0.000470961,-0.00127388,5.93326e-05,0.00711459,-0.000589855,-0.0174659,-0.00331193,0.000588636
1218,0.00051179,-0.0106904,-0.00262017,0.00615084,0.0156262,0.0156262,0.0156262,0.0156262,0.0156262,0.0156262,0.0156262,0.0156262,0.0156262,-0.984374,0.0522669,-0.95545,1.37281,-0.0106904,-0.00262017,0.00615084,-0.00153719,0.000636256,0.00346806,-0.0135674,-0.00121918,0.00389815,0.0156262,0.00204702,-0.00257178,-0.00070145,0.00574662,0.000245174,0.00102212,-0.00202858,0.013017,-0.00200662,0.00150331,0.000110139,0.000709086,-0.00462976,-0.00180885,-0.00483135,-0.00153719,0.000636256,0.00346806,-0.0135674,-0.00121918,0.00389815,0,0,0,0,0,0,0,0,0,-0.000290461,1.75202e-05,-3.04088e-05,-0.00031166,-0.000306601,2.97568e-05,-6.28992e-05,1.54481e-05,0.000307851,0.000356562,-2.65386e-05,2.54176e-05
1219,0.00051179,-0.00520119,0.00204393,-0.0121405,0.113402,0.113402,0.113402,0.113402,0.113402,0.113402,0.113402,0.113402,0.113402,-0.863402,-0.0735705,-0.422805,0.964179,-0.00520119,0.00204393,-0.0121405,-0.0002309,-0.000774513,-0.00214709,-0.00870645,0.00123394,0.0011574,0.113402,-0.00450586,0.0956141,-6.02528e-05,-0.00704772,-0.000808024,-0.00988324,0.131564,-0.0896049,0.0118103,0.00496078,-0.00618773,-0.00205518,4.30104e-05,-0.0121463,-0.117368,-0.0002309,-0.000774513,-0.00214709,-0.00870645,0.00123394,0.0011574,0,0,0,0,0,0,0,0,0,-0.000466444,-9.12013e-06,4.35323e-05,-0.000416981,-0.000318939,-5.188e-05,3.00827e-05,-3.72984e-05,0.000346012,0.000296677,-1.22395e-05,-4.03808e-05
1220,0.00051179,0.0326342,0.00857839,-0.031628,0.00339521,0.00339521,0.00339521,0.00339521,0.00339521,0.00339521,0.00339521,0.00339521,0.00339521,-0.996605,-0.493899,-0.29104,1.14972,0.0326342,0.00857839,-0.031628,0.0144831,-0.0101254,0.0256919,-0.0286071,-0.0114584,0.0163578,0.00339521,-0.20004,0.175735,0.00909103,0.116563,0.15276,-0.112772,-0.199273,-0.36113,-0.03324,-0.110478,0.0167103,0.0593425,-0.0146635,-0.0268633,0.171558,0.0144831,-0.0101254,0.0256919,-0.0286071,-0.0114584,0.0163578,0,0,0,0,0,0,0,0,0,-0.000575371,-0.000630197,0.000359432,-0.000416296,-0.00030225,-0.000369775,-1.16477e-05,8.71384e-06,0.000346623,-0.000454502,4.38051e-05,0.00024506
1221,0.00051179,-0.00162153,0.00276714,0.00191321,0.114899,0.114899,0.114899,0.114899,0.114899,0.114899,0.114899,0.114899,0.114899,-0.864899,-0.413722,0.60416,1.13324,-0.00162153,0.00276714,0.00191321,-0.00234595,0.00187609,0.000377841,-0.0019435,0.000500918,0.00505517,0.114899,0.00148274,-0.01935,0.00011415,0.0026486,-0.00129857,-0.0015635,0.0299179,0.0222701,-0.000560718,-0.00160606,-0.000776667,0.00208975,-0.00380967,0.00269084,-0.0339208,-0.00234595,0.00187609,0.000377841,-0.0019435,0.000500918,0.00505517,0,0,0,0,0,0,0,0,0,-0.000571832,-9.36826e-06,-0.000270032,-0.000242226,-0.000335211,0.000289935,-1.75733e-05,1.80322e-05,0.000328958,0.00023037,-2.07897e-05,3.36778e-05
1222,0.00051179,0.00530387,-0.00179231,-0.00592842,0.0548327,0.0548327,0.0548327,0.0548327,0.0548327,0.0548327,0.0548327,0.0548327,0.0548327,-0.804833,-0.407132,-0.867119,1.25116,0.00530387,-0.00179231,-0.00592842,-0.00945026,0.00125812,0.00279777,0.0018206,-0.00312927,-0.003827,0.0548327,0.000561908,0.000692317,-0.000541888,0.0036616,-4.0367e-05,0.000851192,-0.00229372,-0.00595582,0.000117226,0.00327054,-0.000350122,-0.00072869,-0.00513983,0.000239026,0.00895083,-0.00945026,0.00125812,0.00279777,0.0018206,-0.00312927,-0.003827,0,0,0,0,0,0,0,0,0,-0.000362597,-3.2282e-05,0.000207146,-0.00034573,-0.000316912,-0.000199983,2.1849e-05,-5.97471e-05,0.00037282,0.00038222,2.49532e-05,-5.78007e-06
1223,0.00051179,-0.00177092,-0.00687252,-0.00105266,0.0394401,0.0394401,0.0394401,0.0394401,0.0394401,0.0394401,0.0394401,0.0394401,0.0394401,-0.78944,-0.211217,-0.715385,1.0861,-0.00177092,-0.00687252,-0.00105266,-0.0114523,0.00188372,0.00159826,0.00457466,-0.00408805,-0.00480944,0.0394401,0.000542298,0.0041799,-0.000822,0.00932212,-0.000268104,-0.000233203,0.0150274,-0.00214088,0.00742821,0.0127139,-0.00214921,-0.00158157,-0.0151635,0.000784028,-0.0123932,-0.0114523,0.00188372,0.00159826,0.00457466,-0.00408805,-0.00480944,0,0,0,0,0,0,0,0,0,-0.000379749,-5.11663e-05,0.000119448,-0.000326455,-0.000320012,-0.00010883,6.33981e-05,-5.6056e-05,0.000377409,0.000340106,-6.31651e-06,-1.67434e-05
1224,0.00051179,-0.00272261,-0.000354033,0.00299563,0.121923,0.121923,0.121923,0.121923,0.121923,0.121923,0.121923,0.121923,0.121923,-0.871923,0.336974,0.657833,1.14304,-0.00272261,-0.000354033,0.00299563,-0.00134851,-0.000430537,0.00095176,0.00152155,0.000813779,0.00743313,0.121923,0.000506952,-0.0116497,0.000213273,0.00281305,0.000423953,-0.000745758,0.0216466,0.0139484,-0.00176908,0.000722549,-0.00114628,-0.000233333,-0.00318157,0.00180326,-0.0244089,-0.00134851,-0.000430537,0.00095176,0.00152155,0.000813779,0.00743313,0,0,0,0,0,0,0,0,0,-0.000609592,-1.36085e-05,0.000184231,-0.000247226,-0.000339502,-0.000186403,-1.06384e-05,1.71812e-05,0.000310965,0.000249286,-2.05062e-05,3.67812e-05
1225,0.00051179,0.00466452,0.00148425,-0.0114041,0.0548922,0.0548922,0.0548922,0.0548922,0.0548922,0.0548922,0.0548922,0.0548922,0.0548922,-0.945108,0.20735,-0.646938,1.16394,0.00466452,0.00148425,-0.0114041,-0.00345607,-0.00086972,0.0025015,-0.00676924,-0.00152978,0.000160785,0.0548922,-0.00178848,0.0295443,-0.00315165,0.0160873,0.000474386,-0.00346635,0.0227712,-0.0346832,0.00484548,0.0046903,-0.00325173,0.0050401,-0.0222618,-0.00220103,-0.0164072,-0.00345607,-0.00086972,0.0025015,-0.00676924,-0.00152978,0.000160785,0,0,0,0,0,0,0,0,0,-0.000399299,-1.55975e-05,-0.000129238,-0.000314459,-0.000305736,8.90246e-05,1.00647e-06,1.09091e-06,0.00031846,0.000304811,-4.8906e-05,4.24037e-07
1226,0.00051179,0.0145284,0.0726212,-0.0358421,0.0452854,0.0452854,0.0452854,0.0452854,0.0452854,0.0452854,0.0452854,0.0452854,0.0452854,-0.795285,0.871656,0.234769,1.20307,0.0145284,0.0726212,-0.0358421,0.0333669,-0.0235593,5.80996e-05,-0.0193731,0.0637534,0.000520693,0.0452854,0.0320201,-1.38439,-0.023093,0.671786,0.0555879,-0.0357923,1.04557,1.31427,-0.025218,0.202446,0.0723499,-0.157611,-0.946853,0.00358516,-0.852114,0.0333669,-0.0235593,5.80996e-05,-0.0193731,0.0637534,0.000520693,0,0,0,0,0,0,0,0,0,-0.000158332,0.000298202,0.0004501,-0.00155291,-0.000506723,-0.000916624,-0.000251688,0.000776728,0.00034643,0.00119556,0.000584305,-8.20363e-06
1227,0.00051179,-0.0249424,0.027043,0.0188787,0.0302558,0.0302558,0.0302558,0.0302558,0.0302558,0.0302558,0.0302558,0.0302558,0.0302558,-0.719744,-0.0752986,-0.038533,0.724697,-0.0249424,0.027043,0.0188787,-0.0142283,-0.00883976,0.0367281,0.00167586,-0.0035491,-0.00628413,0.0302558,-0.164446,-0.194203,0.076152,0.514794,-1.15006,0.0823491,-2.06585,1.36921,-0.206761,0.25846,-0.0707213,0.905538,-0.800297,-0.0537714,1.14143,-0.0142283,-0.00883976,0.0367281,0.00167586,-0.0035491,-0.00628413,0,0,0,0,0,0,0,0,0,-0.000633024,-0.000381278,0.000412849,0.0019549,-0.000302875,0.000260273,-0.000513332,-0.00102318,0.000389419,-0.000764125,0.000280475,0.000211817
1228,0.00051179,-0.00386342,-0.00926323,-0.00881469,0.107639,0.107639,0.107639,0.107639,0.107639,0.107639,0.107639,0.107639,0.107639,-0.892361,0.426458,-0.192888,1.00766,-0.00386342,-0.00926323,-0.00881469,-0.00393221,0.00389721,0.00964453,0.00121742,-0.000424702,-0.00209461,0.107639,-0.401315,-0.468499,-0.0740079,-0.0330207,0.169517,-0.189224,-1.58273,0.302845,-0.0634048,-0.0239279,-0.0374024,0.0631984,0.0662119,-0.0125876,1.52834,-0.00393221,0.00389721,0.00964453,0.00121742,-0.000424702,-0.00209461,0,0,0,0,0,0,0,0,0,-0.000731595,-0.00146995,-0.000561595,-0.0011894,-0.00032332,-0.000139512,0.000245352,-0.000256176,0.000301324,-0.000606398,-0.000122094,0.000482878
1229,0.00051179,-0.00236486,0.00499196,-0.014305,0.0291211,0.0291211,0.0291211,0.0291211,0.0291211,0.0291211,0.0291211,0.0291211,0.0291211,-0.779121,0.0976288,0.488788,0.924919,-0.00236486,0.00499196,-0.014305,-7.60003e-05,0.000314621,0.00625009,0.000201862,-0.00145185,-0.00413168,0.0291211,0.000256971,-0.019784,0.000265606,0.00301378,-0.00038081,-0.00144652,0.0469603,0.0225296,-0.0138491,-0.0101837,-0.000591411,2.94939e-06,0.00217801,0.00311885,-0.0326582,-7.60003e-05,0.000314621,0.00625009,0.000201862,-0.00145185,-0.00413168,0,0,0,0,0,0,0,0,0,-0.000601187,1.76115e-05,7.69491e-05,-0.000244977,-0.000346536,-7.11468e-05,-5.15296e-05,-4.69857e-06,0.000331134,0.000293012,-1.57341e-05,1.16426e-05
1230,0.00051179,0.019349,-0.0274357,-0.000936151,0.0724635,0.0724635,0.0724635,0.0724635,0.0724635,0.0724635,0.0724635,0.0724635,0.0724635,-0.927536,-0.63146,0.0324964,1.12255,0.019349,-0.0274357,-0.000936151,0.00784563,-0.0122733,-0.00416958,0.00429504,-0.0126384,-0.0010584,0.0724635,0.266486,1.61621,0.0249236,-0.0812761,-0.146695,0.296237,2.01284,-1.48886,0.0315726,0.102096,0.00918659,-0.404641,0.00661564,-0.0538721,-1.60726,0.00784563,-0.0122733,-0.00416958,0.00429504,-0.0126384,-0.0010584,0,0,0,0,0,0,0,0,0,-0.000494547,0.00107712,-0.000124839,0.00244873,-0.000377351,0.000251342,-0.000115202,-0.00010834,0.000479758,0.000471939,7.38212e-05,-0.000569193
1231,0.00051179,-0.00167177,-0.0036367,0.0060359,0.0499724,0.0499724,0.0499724,0.0499724,0.0499724,0.0499724,0.0499724,0.0499724,0.0499724,-0.858222,-0.950028,0.915955,1.57419,-0.00167177,-0.0036367,0.0060359,-0.00487118,-0.000579359,-0.00447929,-0.000477193,-0.000305577,0.00246973,0.0499724,0.00111474,-0.00164009,-0.000524752,-0.000584707,0.00147901,0.000152033,0.000219816,0.00183284,-0.000640975,0.00159977,-9.02871e-05,-0.00448187,0.00262165,-0.000826892,-0.00177385,-0.00487118,-0.000579359,-0.00447929,-0.000477193,-0.000305577,0.00246973,0,0,0,0,0,0,0,0,0,-0.000507526,-1.50532e-05,-0.000317982,-0.000458678,-0.000332678,0.000306941,-1.86187e-06,-1.77886e-05,0.000334047,0.000415406,1.383e-05,1.19431e-05
1232,0.00051179,-0.000348928,0.002616,-0.00146255,0.0926645,0.0926645,0.0926645,0.0926645,0.0926645,0.0926645,0.0926645,0.0926645,0.0926645,-0.842665,-0.673997,0.609402,1.23924,-0.000348928,0.002616,-0.00146255,-1.57645e-05,0.000202369,0.000194639,-0.00170366,-0.00397154,0.00711157,0.0926645,0.00117661,-0.0146118,0.000475176,-0.00290783,-0.000460303,-0.00102879,0.0227542,0.015421,-0.00105737,-0.00587093,-0.00153431,0.00213683,0.00616276,0.000679016,-0.0234285,-1.57645e-05,0.000202369,0.000194639,-0.00170366,-0.00397154,0.00711157,0,0,0,0,0,0,0,0,0,-0.000482909,-1.33854e-06,-0.000415972,-0.000344267,-0.00032183,0.000422747,-2.09479e-05,-4.07416e-05,0.00033962,0.000335926,-1.43168e-05,3.18102e-05
1233,0.00051179,-9.65595e-05,-0.0284359,0.00878027,0.122581,0.122581,0.122581,0.122581,0.122581,0.122581,0.122581,0.122581,0.122581,-0.872581,-0.0493447,0.0636714,0.876292,-9.65595e-05,-0.0284359,0.00878027,0.00747636,-0.00701224,-0.00885263,0.0102674,0.000687356,0.00662756,0.122581,0.110908,0.662123,-0.00809865,-0.179459,0.342874,0.0839992,0.16673,-1.0049,0.0826502,-0.0357307,-0.0251007,0.242264,0.243626,-0.0650616,-0.417774,0.00747636,-0.00701224,-0.00885263,0.0102674,0.000687356,0.00662756,0,0,0,0,0,0,0,0,0,-0.000505835,0.000415534,-9.76042e-05,0.00050836,-0.000357175,-5.35047e-05,0.000288202,-0.000168274,0.000383109,0.000243106,-7.58596e-05,-0.000468555
1234,0.00051179,-0.00693407,-0.000415738,0.00311143,0.12456,0.12456,0.12456,0.12456,0.12456,0.12456,0.12456,0.12456,0.12456,-0.87456,0.550178,0.679203,1.23647,-0.00693407,-0.000415738,0.00311143,0.000299776,-0.000342937,0.00186326,0.000435897,0.00240411,0.00719511,0.12456,0.000241533,-0.00669857,0.000502773,0.000276526,0.000851833,-0.000431404,0.0177456,0.0127808,-0.0013354,0.00298592,-0.00107438,0.00150058,-0.00284671,0.000700448,-0.0223576,0.000299776,-0.000342937,0.00186326,0.000435897,0.00240411,0.00719511,0,0,0,0,0,0,0,0,0,-0.000563741,-5.99042e-06,0.000291549,-0.00031187,-0.000341201,-0.00028995,-1.31945e-05,3.75134e-05,0.000306167,0.000326188,-2.42161e-05,3.07808e-05
1235,0.00051179,0.0155285,0.00329953,0.00742909,0.0631343,0.0631343,0.0631343,0.0631343,0.0631343,0.0631343,0.0631343,0.0631343,0.0631343,-0.936866,-0.552212,0.266261,1.11962,0.0155285,0.00329953,0.00742909,0.000498634,0.00554914,0.0158783,-0.000308318,-0.00142275,-0.00601617,0.0631343,0.212366,-0.649887,0.000773139,-0.0802293,-0.164177,-0.119949,-0.391585,0.798535,0.0351119,0.163747,0.0174328,0.156918,-0.0868177,0.0398007,0.227238,0.000498634,0.00554914,0.0158783,-0.000308318,-0.00142275,-0.00601617,0,0,0,0,0,0,0,0,0,-0.000412382,0.000739569,-0.000437068,-0.000514571,-0.000382418,0.000500291,-0.000150735,0.000131071,0.000310749,-0.000526141,2.903e-05,-0.00015583
1236,0.00051179,-0.0524001,0.0558634,-0.0412617,0.0541876,0.0541876,0.0541876,0.0541876,0.0541876,0.0541876,0.0541876,0.0541876,0.0541876,-0.684928,0.317112,0.0458124,0.756165,-0.0524001,0.0558634,-0.0412617,0.0287374,-0.030476,-0.00316483,-0.0143205,-0.0267577,-0.00270286,0.0541876,1.03112,4.30972,0.512732,3.59189,0.786472,0.0417551,-4.97765,-5.04379,0.475339,0.601487,0.284629,0.646725,-4.24924,0.199177,4.37219,0.0287374,-0.030476,-0.00316483,-0.0143205,-0.0267577,-0.00270286,0,0,0,0,0,0,0,0,0,-5.42179e-05,0.00331774,0.00239612,0.0103796,-8.508e-05,0.00242644,0.000323532,0.00480707,-8.41096e-05,-0.00999367,-0.00222836,-0.00099919
1237,0.00051179,0.00716027,0.00442023,-0.00730583,0.0401977,0.0401977,0.0401977,0.0401977,0.0401977,0.0401977,0.0401977,0.0401977,0.0401977,-0.790198,0.0893797,-0.89815,1.19961,0.00716027,0.00442023,-0.00730583,-0.0120142,0.000724419,0.00140173,0.00460668,-0.00038857,-0.00466127,0.0401977,0.000710681,-0.00406587,-0.000452749,0.0026573,0.000152457,0.000816397,-0.00476983,-0.00324686,0.00154368,-0.00177212,-0.000459935,0.0004876,-0.0053054,0.000555929,0.0115881,-0.0120142,0.000724419,0.00140173,0.00460668,-0.00038857,-0.00466127,0,0,0,0,0,0,0,0,0,-0.000313453,-4.58345e-05,-4.54693e-05,-0.000317596,-0.000301177,4.8186e-05,4.14346e-05,1.72138e-05,0.000375137,0.000339777,-2.56989e-05,-9.84386e-06
1238,0.00051179,-0.00456173,0.00206915,-0.0103222,0.0327173,0.0327173,0.0327173,0.0327173,0.0327173,0.0327173,0.0327173,0.0327173,0.0327173,-0.830909,0.295765,-0.967283,1.30902,-0.00456173,0.00206915,-0.0103222,-0.00408935,0.00185724,0.000956856,-0.000728991,-0.00097724,-0.000986955,0.0327173,0.00142534,-0.00465457,-0.000205122,0.00219154,-6.91519e-05,0.000823207,0.000253332,0.00928545,-0.000469552,-0.000520039,6.07381e-05,0.00070503,-0.00374066,-0.00095186,0.00936387,-0.00408935,0.00185724,0.000956856,-0.000728991,-0.00097724,-0.000986955,0,0,0,0,0,0,0,0,0,-0.000305854,-6.62615e-06,-0.000120385,-0.000363383,-0.000302607,0.000136906,7.01165e-07,4.18533e-05,0.000352748,0.000381183,-5.10183e-05,-3.00019e-06
1239,0.00051179,0.00928265,0.0100904,0.0232254,0.0757985,0.0757985,0.0757985,0.0757985,0.0757985,0.0757985,0.0757985,0.0757985,0.0757985,-0.825799,0.545874,-0.310366,1.03742,0.00928265,0.0100904,0.0232254,-0.0125645,-0.00387493,-0.012448,-0.00208282,-0.014671,-0.0127901,0.0757985,-0.0248875,0.92191,0.00333381,-0.0164034,0.0238602,-0.0499374,0.987036,-0.955052,0.0482269,0.0501215,0.0025068,0.109632,-0.0438085,-0.0786613,-1.11989,-0.0125645,-0.00387493,-0.012448,-0.00208282,-0.014671,-0.0127901,0,0,0,0,0,0,0,0,0,-0.000658035,-9.17689e-05,-0.000467764,-0.00117976,-0.000243301,0.000462353,0.000326212,-7.12139e-05,0.000303842,0.000555907,-5.04283e-05,-0.000361765
1240,0.00051179,-0.00385297,-0.00137638,0.000615826,0.0278979,0.0278979,0.0278979,0.0278979,0.0278979,0.0278979,0.0278979,0.0278979,0.0278979,-0.972102,-0.552382,0.817673,1.38517,-0.00385297,-0.00137638,0.000615826,-0.00143035,-0.00126668,-0.00266792,0.0108983,0.00637407,0.00245982,0.0278979,0.00115515,-0.0136436,0.000786014,-0.00616317,0.000262972,-0.000601802,0.0238745,0.0172336,0.000319315,0.00116084,-0.000648336,0.00123675,0.00637871,-0.000727691,-0.0257271,-0.00143035,-0.00126668,-0.00266792,0.0108983,0.00637407,0.00245982,0,0,0,0,0,0,0,0,0,-0.000589959,-1.60005e-05,-0.000276715,-0.000302067,-0.000362093,0.000271908,4.14638e-05,2.8955e-05,0.000303924,0.00026937,2.83023e-05,-5.96388e-06
1241,0.00051179,-1.36071e-05,0.00273879,-0.00044349,0.0625368,0.0625368,0.0625368,0.0625368,0.0625368,0.0625368,0.0625368,0.0625368,0.0625368,-0.812537,-0.378849,0.714705,1.14654,-1.36071e-05,0.00273879,-0.00044349,0.00238872,-2.40859e-05,0.000489812,-0.0058063,-0.00424202,0.0061289,0.0625368,0.000220373,-0.00134116,0.000233181,-9.43791e-05,-0.000673737,0.000155218,0.00422791,0.00202851,-0.0013888,-0.00264407,-0.000888744,0.000220633,-3.39292e-07,3.59267e-05,-0.00400505,0.00238872,-2.40859e-05,0.000489812,-0.0058063,-0.00424202,0.0061289,0,0,0,0,0,0,0,0,0,-0.000607185,1.12238e-05,-0.000225874,-0.000246502,-0.000322754,0.000227965,-3.77972e-05,-1.59995e-05,0.000344038,0.000252953,-3.53081e-05,2.90024e-05
1242,0.00051179,-0.003851,-0.0165481,0.0194831,0.100102,0.100102,0.100102,0.100102,0.100102,0.100102,0.100102,0.100102,0.100102,-0.899898,-0.259465,-0.260687,0.972161,-0.003851,-0.0165481,0.0194831,-0.0123351,0.00478346,-0.00166001,0.00190683,0.00358996,-0.00400494,0.100102,-0.103494,0.593848,0.019565,-0.154964,-0.0705701,-0.0792208,-0.124799,-0.519426,-0.0469066,-0.0250131,0.0167469,-0.097861,0.196525,-0.0312391,0.203177,-0.0123351,0.00478346,-0.00166001,0.00190683,0.00358996,-0.00400494,0,0,0,0,0,0,0,0,0,-0.000577435,-0.000352907,0.000283248,-0.000777732,-0.000309432,-3.97637e-05,1.23907e-06,0.000146525,0.000328034,-3.1076e-05,5.68427e-05,5.00176e-05
1243,0.00051179,0.00823241,0.015548,-0.00887027,0.0431272,0.0431272,0.0431272,0.0431272,0.0431272,0.0431272,0.0431272,0.0431272,0.0431272,-0.956873,-0.545464,0.330412,1.14992,0.00823241,0.015548,-0.00887027,0.00484451,0.00399297,0.00083258,0.00580645,0.00625524,-0.0128397,0.0431272,0.0985853,-0.537675,0.00302363,-0.0427021,-0.0932347,-0.067705,-0.0254463,0.622678,0.0174283,0.116231,0.0101338,0.117351,-0.089077,0.0327701,-0.0830348,0.00484451,0.00399297,0.00083258,0.00580645,0.00625524,-0.0128397,0,0,0,0,0,0,0,0,0,-0.00045345,0.000348001,-0.000422633,-0.000349038,-0.000384415,0.000492799,-5.29743e-05,0.000141723,0.000312887,-0.000319686,2.21674e-05,-6.94961e-05
1244,0.00051179,0.010355,0.00492945,0.00122884,0.109564,0.109564,0.109564,0.109564,0.109564,0.109564,0.109564,0.109564,0.109564,-0.859564,0.249598,0.323881,0.951865,0.010355,0.00492945,0.00122884,0.00394039,0.00373008,-0.00314734,0.0036139,-0.0126371,0.00717003,0.109564,0.0195096,-0.380794,0.00600994,-0.0958455,0.0146439,-0.0300707,0.277097,0.355796,0.0243935,-0.119104,-0.0160142,-0.0511449,0.21002,0.0302091,-0.227181,0.00394039,0.00373008,-0.00314734,0.0036139,-0.0126371,0.00717003,0,0,0,0,0,0,0,0,0,-0.000521936,1.47462e-05,0.000230031,-0.000507384,-0.000322664,-0.000132631,3.75333e-05,-0.000199016,0.000296511,0.000175204,-8.7496e-05,8.4392e-05
1245,0.00051179,0.00247027,-0.00639188,0.00544942,0.0964733,0.0964733,0.0964733,0.0964733,0.0964733,0.0964733,0.0964733,0.0964733,0.0964733,-0.903527,-0.873245,0.567986,1.37896,0.00247027,-0.00639188,0.00544942,0.000833619,-0.00240653,-0.00198635,0.00131872,0.00457112,0.00852903,0.0964733,0.00213642,-0.00274121,0.000865109,-0.0167018,0.00393462,-0.00141787,0.0198572,-0.00366369,0.000824524,0.00959867,-0.00153027,-0.0138962,0.013495,0.000415709,-0.0114103,0.000833619,-0.00240653,-0.00198635,0.00131872,0.00457112,0.00852903,0,0,0,0,0,0,0,0,0,-0.000372373,-1.37058e-06,-0.000526519,-0.000486413,-0.000346625,0.000511105,-5.50458e-06,-3.1932e-05,0.000309914,0.00045237,6.23404e-05,2.85029e-05
1246,0.00051179,0.0145946,-0.0127938,-0.0287911,0.0451967,0.0451967,0.0451967,0.0451967,0.0451967,0.0451967,0.0451967,0.0451967,0.0451967,-0.795197,-0.25292,0.0719068,0.837542,0.0145946,-0.0127938,-0.0287911,0.0105215,0.0195945,0.0202773,-0.00437306,-0.0129189,0.00558054,0.0451967,0.537285,4.70777,-0.204485,-2.60323,0.643553,0.114552,-0.361773,-5.36592,0.209992,-0.261379,-0.0520305,0.0823177,2.8774,-0.0871634,0.308247,0.0105215,0.0195945,0.0202773,-0.00437306,-0.0129189,0.00558054,0,0,0,0,0,0,0,0,0,-0.000324495,0.00196383,-0.00105546,0.00218181,-0.000452066,-0.000793447,0.000252892,-0.000739512,0.000376694,-0.000833512,9.00176e-05,-0.00118312
1247,0.00051179,-0.00166135,-0.00183914,0.0452552,0.0274652,0.0274652,0.0274652,0.0274652,0.0274652,0.0274652,0.0274652,0.0274652,0.0274652,-0.777465,-0.764118,0.399319,1.16094,-0.00166135,-0.00183914,0.0452552,-0.00054446,-0.00423266,0.0100062,-0.0239618,-0.0353365,-0.0171259,0.0274652,0.00142552,-0.025485,0.000920542,-0.0354619,0.00417637,-0.00159169,0.0510567,0.02297,-0.0151996,-0.0516824,-0.00509932,0.00466269,0.0889834,0.00996522,-0.100975,-0.00054446,-0.00423266,0.0100062,-0.0239618,-0.0353365,-0.0171259,0,0,0,0,0,0,0,0,0,-0.000353657,5.68373e-05,-0.000599171,-0.000464952,-0.000255609,0.00056605,-0.000143375,-0.000261976,0.000364661,0.000549097,-0.000142383,1.66287e-05
1248,0.00051179,0.00844744,0.00803805,0.0117406,0.0657179,0.0657179,0.0657179,0.0657179,0.0657179,0.0657179,0.0657179,0.0657179,0.0657179,-0.815718,-0.891265,0.514196,1.31307,0.00844744,0.00803805,0.0117406,0.00317568,-0.000132844,0.00128594,0.000772522,-0.0118016,-0.00071749,0.0657179,0.00212659,0.00296914,-0.000216119,-0.0154652,0.0052372,0.00020441,-0.0271512,-0.0166538,-0.00230996,-0.00916516,-0.00149388,-0.013378,0.0165923,-0.000994883,0.0287886,0.00317568,-0.000132844,0.00128594,0.000772522,-0.0118016,-0.00071749,0,0,0,0,0,0,0,0,0,-0.000335075,2.41431e-05,-0.000563323,-0.00051706,-0.000294948,0.000559833,-1.00554e-05,-0.000158739,0.000350945,0.000531963,2.57838e-05,-1.09301e-05
1249,0.00051179,0.00248154,-0.000720414,-0.0058804,0.0999417,0.0999417,0.0999417,0.0999417,0.0999417,0.0999417,0.0999417,0.0999417,0.0999417,-0.849942,0.545647,-0.855368,1.32355,0.00248154,-0.000720414,-0.0058804,-0.00461068,0.00033859,0.00124326,-0.000122201,0.00142792,-5.81165e-05,0.0999417,0.000367001,0.0049029,-0.0006878,0.00377577,4.14454e-05,0.00070893,-0.00282603,-0.00742589,-0.000479849,-0.000398478,-0.000167825,0.000178155,-0.00265688,-0.000239279,0.00852828,-0.00461068,0.00033859,0.00124326,-0.000122201,0.00142792,-5.81165e-05,0,0,0,0,0,0,0,0,0,-0.000392616,-1.5284e-05,-0.000238533,-0.000400656,-0.000298673,0.00023504,2.92412e-06,8.91833e-05,0.000329815,0.000420177,-7.65824e-05,4.44739e-06
1250,0.00051179,0.00196843,-0.000707441,-0.00995332,0.0104867,0.0104867,0.0104867,0.0104867,0.0104867,0.0104867,0.0104867,0.0104867,0.0104867,-0.886652,0.989513,-0.798284,1.55001,0.00196843,-0.000707441,-0.00995332,-0.00257056,-0.00381745,-0.00185587,4.0943e-05,-0.00288698,-0.00473616,0.0104867,0.00156517,-0.0051871,-0.000635438,-0.000684135,0.00196032,0.00122925,-0.00235387,0.00125835,-0.00102614,-0.00172452,0.000532542,0.00263994,0.0031161,0.000763472,0.00966725,-0.00257056,-0.00381745,-0.00185587,4.0943e-05,-0.00288698,-0.00473616,0,0,0,0,0,0,0,0,0,-0.000556171,1.85376e-06,-0.000360656,-0.000604983,-0.000304097,0.000316127,1.95472e-06,0.00011446,0.000257209,0.000598717,-0.000138005,-1.29828e-05
1251,0.00051179,0.0047493,4.18499e-05,0.177752,0.00286377,0.00286377,0.00286377,0.00286377,0.00286377,0.00286377,0.00286377,0.00286377,0.00286377,-0.760091,0.997136,0.0249583,1.25405,0.0047493,4.18499e-05,0.177752,0.147331,-0.0362219,0.413816,0.0300702,-0.116905,-0.143435,0.00286377,0.686122,7.19206,-0.009887,-0.0840107,2.23739,1.84127,9.39399,-9.4342,-0.000320869,0.0173849,-0.00830537,2.3472,0.066584,-0.34159,-11.9189,0.147331,-0.0362219,0.413816,0.0300702,-0.116905,-0.143435,0,0,0,0,0,0,0,0,0,-0.000192128,0.00373091,0.00183188,0.0158181,-0.000483209,-0.00229297,-0.00028761,-0.00701579,0.00122026,0.0067328,0.00576369,-0.00286148
1252,0.00051179,-1.08358,0.344625,0.34343,0.00281057,0.00281057,0.00281057,0.00281057,0.00281057,0.00281057,0.00281057,0.00281057,0.00281057,-0.713486,-0.480478,0.119132,0.868397,-1.08358,0.344625,0.34343,0.492458,-0.402618,-1.97806,-0.193831,0.15221,-0.288998,0.00281057,1.13866,-55.0962,-0.142048,3.67241,-0.948019,-0.799076,31.4882,57.1278,0.531673,0.354554,0.0969976,0.675798,-4.37159,0.611426,-32.5074,0.492458,-0.402618,-1.97806,-0.193831,0.15221,-0.288998,0,0,0,0,0,0,0,0,0,0.000463255,0.0055117,-0.00217617,-0.0138308,-0.000560487,-0.00327049,-0.000954704,0.00163855,-0.00010585,-0.0139406,0.000853527,-0.00103177
1253,0.00051179,-0.00712019,-0.00707774,-0.0234144,0.000849663,0.000849663,0.000849663,0.000849663,0.000849663,0.000849663,0.000849663,0.000849663,0.000849663,-0.99915,0.32163,-0.490222,1.15848,-0.00712019,-0.00707774,-0.0234144,-0.00479718,-0.00116494,-0.00184384,0.0152781,-0.00692347,0.0153627,0.000849663,-0.0206184,0.239672,0.000845976,-0.0185762,0.000655263,-0.0201712,0.135723,-0.233207,-0.0232144,0.0298992,-0.00415796,-0.00510712,-0.00424525,-0.0104227,-0.107202,-0.00479718,-0.00116494,-0.00184384,0.0152781,-0.00692347,0.0153627,0,0,0,0,0,0,0,0,0,-0.000466384,-9.42948e-05,-0.000197403,-0.000320215,-0.00031879,0.000194214,-6.89844e-06,-7.91575e-05,0.000304185,0.000100064,-3.16568e-05,5.74827e-05
1254,0.00051179,0.0140025,-0.0116494,0.00227165,0.0820526,0.0820526,0.0820526,0.0820526,0.0820526,0.0820526,0.0820526,0.0820526,0.0820526,-0.832053,-0.336398,0.00472814,0.897495,0.0140025,-0.0116494,0.00227165,0.00970208,0.00372099,0.0133251,-0.00599015,-0.00216587,-0.00988971,0.0820526,0.0388212,0.317551,-0.0112228,-0.245317,0.033891,0.340437,2.35568,-0.365445,0.0205113,0.0328523,-0.13906,0.0152939,0.224114,-0.0212693,-2.37324,0.00970208,0.00372099,0.0133251,-0.00599015,-0.00216587,-0.00988971,0,0,0,0,0,0,0,0,0,-0.000540547,0.000205826,-4.96009e-06,0.00381393,-0.000369841,-7.00583e-05,3.58149e-05,-0.0012075,0.000458807,-0.000276315,-0.000204753,-0.000192586
1255,0.00051179,-0.0048505,0.00147384,0.0036769,0.12306,0.12306,0.12306,0.12306,0.12306,0.12306,0.12306,0.12306,0.12306,-0.87694,-0.649517,-0.496582,1.19895,-0.0048505,0.00147384,0.0036769,-0.00358856,0.0013371,0.00127486,0.000735383,-0.00633754,-0.000758949,0.12306,-0.00285409,0.0816835,-0.00163995,0.0134959,0.00321897,-0.00675291,0.0899979,-0.0800519,0.00900419,0.0165263,-0.00517218,0.00235341,-0.0314961,-0.00682925,-0.0960282,-0.00358856,0.0013371,0.00127486,0.000735383,-0.00633754,-0.000758949,0,0,0,0,0,0,0,0,0,-0.000575423,-2.72618e-05,0.000453815,-0.000439972,-0.000344867,-0.000456844,5.36493e-05,-0.00017864,0.000328958,0.000385192,6.3543e-05,-3.29895e-05
1256,0.00051179,-0.112027,-0.0459356,-0.101815,0.0445022,0.0445022,0.0445022,0.0445022,0.0445022,0.0445022,0.0445022,0.0445022,0.0445022,-0.794502,0.83778,-0.101785,1.15908,-0.112027,-0.0459356,-0.101815,0.0550559,-0.0305178,0.0354733,-0.0568364,0.00178525,-0.0198926,0.0445022,-1.51322,-16.0032,0.2696,2.61105,0.657326,0.00240985,-6.02688,15.4579,-0.0585971,0.690287,0.0285863,0.344697,-3.2554,0.263778,5.78399,0.0550559,-0.0305178,0.0354733,-0.0568364,0.00178525,-0.0198926,0,0,0,0,0,0,0,0,0,-0.00127116,-0.00575654,0.000470807,0.000900268,-4.14792e-05,0.00192002,0.000957115,-0.000986512,0.000414647,-0.000521436,0.00129023,0.00275371
1257,0.00051179,0.00491101,-0.00800866,0.0371256,0.100801,0.100801,0.100801,0.100801,0.100801,0.100801,0.100801,0.100801,0.100801,-0.850801,-0.265027,-0.252044,0.926082,0.00491101,-0.00800866,0.0371256,-0.0142789,0.0131352,-0.00600999,0.00469825,0.0196765,-0.00353684,0.100801,-0.0798093,1.01513,0.0127916,-0.240251,-0.0409785,-0.0877771,0.220329,-0.979067,-0.0456065,-0.106382,0.0159804,-0.0900269,0.354642,-0.0680065,-0.167428,-0.0142789,0.0131352,-0.00600999,0.00469825,0.0196765,-0.00353684,0,0,0,0,0,0,0,0,0,-0.000601999,-0.000232126,0.000375649,-0.00108151,-0.000311548,-0.000116381,3.37739e-05,0.00024547,0.0003298,0.000143639,0.000111099,-0.000119401
1258,0.00051179,-0.0027251,-0.00425865,0.00210055,0.0613651,0.0613651,0.0613651,0.0613651,0.0613651,0.0613651,0.0613651,0.0613651,0.0613651,-0.811365,0.405494,0.599367,1.08719,-0.0027251,-0.00425865,0.00210055,-0.000190834,-0.00115953,0.00172655,-0.00590168,0.00393206,0.00943278,0.0613651,0.000437871,-0.0120647,0.000195034,0.00765229,-0.000221419,-0.000408851,0.0182106,0.0150112,-0.00529601,0.00394408,-0.000939384,0.000662907,-0.00733772,0.00122907,-0.0209741,-0.000190834,-0.00115953,0.00172655,-0.00590168,0.00393206,0.00943278,0,0,0,0,0,0,0,0,0,-0.000580564,1.56841e-06,0.000241839,-0.000261323,-0.000356728,-0.000251484,-5.56552e-05,3.68734e-05,0.000322871,0.0002745,-6.94665e-06,5.36425e-05
1259,0.00051179,-0.00268081,0.00284258,0.0186564,0.0341047,0.0341047,0.0341047,0.0341047,0.0341047,0.0341047,0.0341047,0.0341047,0.0341047,-0.784105,0.146855,-0.442974,0.912476,-0.00268081,0.00284258,0.0186564,-0.00573356,0.00253925,-0.00160648,-9.50308e-05,-0.00239708,0.00545344,0.0341047,-0.00100009,0.0145879,-0.000226133,0.00289142,0.000499367,-0.0014775,0.0491836,-0.0124065,0.0297763,0.00920118,-0.00650447,0.00259021,-0.0149352,-0.00854982,-0.0704302,-0.00573356,0.00253925,-0.00160648,-9.50308e-05,-0.00239708,0.00545344,0,0,0,0,0,0,0,0,0,-0.000467278,-5.65735e-05,-0.000105925,-0.000418057,-0.000298316,0.000129056,0.000125501,-4.6181e-05,0.000367917,0.000387217,-4.28345e-05,-3.83872e-05
1260,0.00051179,0.0515828,-0.00595319,0.00812566,0.081266,0.081266,0.081266,0.081266,0.081266,0.081266,0.081266,0.081266,0.081266,-0.831266,-0.254579,0.0365486,0.870143,0.0515828,-0.00595319,0.00812566,0.00967049,-0.00321987,0.00298755,-0.00239423,-0.00606258,-0.00610831,0.081266,0.222767,1.71791,-0.0718084,-0.963629,0.236184,0.217783,1.22792,-2.00567,0.0832699,-0.0625628,-0.107087,0.229639,1.03215,-0.0745664,-1.46568,0.00967049,-0.00321987,0.00298755,-0.00239423,-0.00606258,-0.00610831,0,0,0,0,0,0,0,0,0,-0.000458322,0.000893757,-0.000387938,0.00238651,-0.000399584,-0.000362346,0.00013595,-0.00097619,0.000428535,-0.000178797,-0.000155308,-0.000671802
1261,0.00051179,0.0146123,0.00736974,-0.00173306,0.0899731,0.0899731,0.0899731,0.0899731,0.0899731,0.0899731,0.0899731,0.0899731,0.0899731,-0.910027,-0.708975,0.314901,1.19581,0.0146123,0.00736974,-0.00173306,-0.00062068,0.00200199,-0.00037597,0.00287555,0.0022877,0.00397411,0.0899731,0.0760637,-0.585185,0.017414,-0.0726472,-0.0808311,-0.0577563,0.0120411,0.651404,-0.013455,0.0143767,-0.0132038,0.136197,0.0509008,0.0391009,-0.146505,-0.00062068,0.00200199,-0.00037597,0.00287555,0.0022877,0.00397411,0,0,0,0,0,0,0,0,0,-0.000351407,0.000252671,-0.000557928,-0.000598434,-0.000335449,0.000752087,-0.000177442,-9.62791e-05,0.00030046,1.71118e-05,-1.28817e-05,9.08306e-05
1262,0.00051179,-0.00186715,0.00367587,-0.00209862,0.109851,0.109851,0.109851,0.109851,0.109851,0.109851,0.109851,0.109851,0.109851,-0.890149,-0.135437,-0.638912,1.10405,-0.00186715,0.00367587,-0.00209862,-0.00352245,0.00144961,-9.92473e-05,-0.0021335,-0.000674844,-0.0018891,0.109851,-0.000518426,0.0233268,-0.00229632,0.0143143,-0.000680483,-0.00276526,0.0192035,-0.0207792,0.00602619,0.00231713,-0.00356612,-0.000760546,-0.0203073,-0.0012225,-0.0163444,-0.00352245,0.00144961,-9.92473e-05,-0.0021335,-0.000674844,-0.0018891,0,0,0,0,0,0,0,0,0,-0.000393845,-1.64431e-05,7.52786e-05,-0.000321053,-0.000310058,-8.37458e-05,2.32248e-05,-3.63176e-05,0.000344038,0.000292408,-6.09206e-06,-1.17967e-05
1263,0.00051179,0.00235642,0.00457855,-0.00501262,0.0151904,0.0151904,0.0151904,0.0151904,0.0151904,0.0151904,0.0151904,0.0151904,0.0151904,-0.855297,0.98481,-0.731516,1.49549,0.00235642,0.00457855,-0.00501262,-0.00538134,-0.00603101,-0.00460773,0.0010351,-0.00271495,-0.00357041,0.0151904,0.00130923,-0.00195633,-0.000828199,-0.0017911,0.00082565,0.00103309,-0.00831854,-0.00122574,-0.00080313,-0.00336171,0.000509101,0.00352855,0.000574255,0.00200343,0.00980262,-0.00538134,-0.00603101,-0.00460773,0.0010351,-0.00271495,-0.00357041,0,0,0,0,0,0,0,0,0,-0.000595994,-1.41215e-05,-0.000393406,-0.000635707,-0.000285799,0.000324814,7.39883e-06,0.000134595,0.000276275,0.000599961,-0.000156653,-1.59592e-06
1264,0.00051179,-0.00901429,-0.0260878,-0.015769,0.000336232,0.000336232,0.000336232,0.000336232,0.000336232,0.000336232,0.000336232,0.000336232,0.000336232,-0.999664,-0.173166,-0.260062,1.04735,-0.00901429,-0.0260878,-0.015769,-0.00104462,-0.000569392,-0.00363019,6.99982e-05,-0.012807,-0.00792658,0.000336232,-0.0934311,0.107869,0.0136897,0.0923938,-0.102393,-0.0398614,-0.119504,0.00353829,-0.0444509,0.0564625,0.00308444,-0.0533625,-0.122768,0.00392694,0.188635,-0.00104462,-0.000569392,-0.00363019,6.99982e-05,-0.012807,-0.00792658,0,0,0,0,0,0,0,0,0,-0.000528522,-0.000307544,6.93477e-05,-0.000357243,-0.00031578,6.18554e-05,-5.70705e-05,-8.24409e-06,0.000334814,-7.76736e-05,-8.89815e-05,0.000144836
1265,0.00051179,-0.0336485,-0.0193606,-0.0845599,0.0836592,0.0836592,0.0836592,0.0836592,0.0836592,0.0836592,0.0836592,0.0836592,0.0836592,-0.833659,0.565396,-0.0954917,1.01182,-0.0336485,-0.0193606,-0.0845599,-0.0193592,0.00277778,0.0237606,0.00429222,-0.0134761,-0.0121172,0.0836592,-1.13479,-10.7829,-0.0855892,-1.05623,1.00222,0.0288191,-2.0531,9.81434,-0.150197,0.279756,-0.0166364,-0.142208,0.795837,0.159647,2.27986,-0.0193592,0.00277778,0.0237606,0.00429222,-0.0134761,-0.0121172,0,0,0,0,0,0,0,0,0,-0.00104149,-0.00444093,-0.000601545,0.00181579,-0.000307167,-0.000226569,0.000600319,-0.000318526,0.000349797,-0.00128999,1.74009e-05,0.00206749
1266,0.00051179,-0.0342627,-0.00704692,0.00537422,0.112669,0.112669,0.112669,0.112669,0.112669,0.112669,0.112669,0.112669,0.112669,-0.884526,-0.887331,-0.27427,1.28256,-0.0342627,-0.00704692,0.00537422,0.00179466,-0.00130396,0.00176088,-0.00257408,-0.0194999,0.00590526,0.112669,-0.0664455,0.503166,-0.0306292,0.125976,-0.110441,-0.0190596,-0.183828,-0.358462,0.00704126,0.0675024,-0.0330891,-0.0833491,-0.186432,0.00668297,0.261803,0.00179466,-0.00130396,0.00176088,-0.00257408,-0.0194999,0.00590526,0,0,0,0,0,0,0,0,0,-0.000853032,-0.000268336,0.000654749,-0.000865616,-0.000433082,-0.000974081,7.72537e-05,-0.000581868,0.000301011,0.000692629,5.59779e-05,0.000117859
1267,0.00051179,-0.00605556,0.00526486,0.0100695,0.0885435,0.0885435,0.0885435,0.0885435,0.0885435,0.0885435,0.0885435,0.0885435,0.0885435,-0.838543,-0.351444,-0.344488,0.972286,-0.00605556,0.00526486,0.0100695,0.00102625,0.00222081,-0.00380374,-0.00217058,0.0175149,-0.00280955,0.0885435,-0.0150587,0.422349,-8.41543e-05,-0.0334084,0.0020222,-0.0276819,0.475381,-0.418315,0.0175215,-0.050204,-0.00416759,-0.000378971,0.0783475,-0.0389216,-0.485071,0.00102625,0.00222081,-0.00380374,-0.00217058,0.0175149,-0.00280955,0,0,0,0,0,0,0,0,0,-0.000546373,-2.35325e-05,0.000273532,-0.000700735,-0.000337088,-0.000252165,0.000123385,7.63071e-05,0.000342101,0.000385878,5.71661e-05,-0.000162026
1268,0.00051179,0.00810249,0.00585179,-0.0109111,0.0201694,0.0201694,0.0201694,0.0201694,0.0201694,0.0201694,0.0201694,0.0201694,0.0201694,-0.770169,0.358996,-0.94751,1.27272,0.00810249,0.00585179,-0.0109111,-0.0130873,0.000589886,-0.00119611,-0.000390195,0.000229488,-0.00542392,0.0201694,0.000918046,-0.0114544,-0.000145964,0.00283325,0.000161892,0.000799969,-0.00350403,0.00319001,0.000772147,-0.00269922,5.12758e-05,0.0013861,-0.00598582,-4.014e-05,0.0130291,-0.0130873,0.000589886,-0.00119611,-0.000390195,0.000229488,-0.00542392,0,0,0,0,0,0,0,0,0,-0.000322901,-4.09409e-05,-0.000144588,-0.000387022,-0.000291789,0.000149028,2.18152e-05,4.73161e-05,0.000372894,0.000383061,-4.45085e-05,-7.41486e-06
1269,0.00051179,-0.00241861,-0.00265472,-0.00148339,0.0793416,0.0793416,0.0793416,0.0793416,0.0793416,0.0793416,0.0793416,0.0793416,0.0793416,-0.920658,0.582554,-0.523391,1.20868,-0.00241861,-0.00265472,-0.00148339,-0.00228807,-0.00118924,-0.00259005,-0.00384994,-0.00390518,0.000982604,0.0793416,-0.00444053,0.0832531,-0.00102823,-0.00136064,0.0015906,-0.00804815,0.0594331,-0.0824251,0.0109888,-0.00289274,-0.000246934,0.0229466,0.00690811,-0.00695816,-0.0808963,-0.00228807,-0.00118924,-0.00259005,-0.00384994,-0.00390518,0.000982604,0,0,0,0,0,0,0,0,0,-0.000538953,-2.72215e-05,-0.000403265,-0.000416778,-0.000291491,0.00038109,4.21159e-05,6.62178e-05,0.000296764,0.000310396,-0.000107739,-2.34563e-05
1270,0.00051179,6.69877e-05,0.00489909,0.00426568,0.0290212,0.0290212,0.0290212,0.0290212,0.0290212,0.0290212,0.0290212,0.0290212,0.0290212,-0.970979,-0.732145,-0.826121,1.47014,6.69877e-05,0.00489909,0.00426568,-0.00233132,0.00043501,0.00184687,-0.00744719,0.00903585,0.00146125,0.0290212,0.00040628,0.00140156,-0.00140392,0.00644523,-0.0013827,0.00141551,-0.00679342,-8.58554e-05,-0.0017404,-0.0043579,-0.000324801,0.00267915,-0.00698642,-0.0021401,-0.000151408,-0.00233132,0.00043501,0.00184687,-0.00744719,0.00903585,0.00146125,0,0,0,0,0,0,0,0,0,-0.000464566,3.98034e-06,0.000325807,-0.000439573,-0.000272954,-0.000335496,-3.23324e-05,-6.90854e-05,0.000277162,0.000472197,0.000156196,1.02113e-05
1271,0.00051179,0.00236485,-0.00299286,0.00131845,0.0930931,0.0930931,0.0930931,0.0930931,0.0930931,0.0930931,0.0930931,0.0930931,0.0930931,-0.843093,-0.828222,-0.75623,1.40308,0.00236485,-0.00299286,0.00131845,-0.00278923,0.00256651,0.00274713,-0.000432206,-0.000885362,0.0017166,0.0930931,0.00127621,0.000951841,-0.000823818,0.00372619,-0.000774722,0.000647012,-0.00854223,-0.00254197,-0.000379073,0.00380839,-0.000575165,-0.00160591,-0.00454173,0.00116106,0.00882969,-0.00278923,0.00256651,0.00274713,-0.000432206,-0.000885362,0.0017166,0,0,0,0,0,0,0,0,0,-0.000530027,-8.20359e-06,0.000353595,-0.000492047,-0.00032025,-0.000336168,-4.69489e-06,-0.000138774,0.000327632,0.000525988,0.000124168,1.37498e-05
1272,0.00051179,-0.00432852,-0.0019507,0.00121558,0.0897967,0.0897967,0.0897967,0.0897967,0.0897967,0.0897967,0.0897967,0.0897967,0.0897967,-0.839797,0.424531,0.680865,1.16149,-0.00432852,-0.0019507,0.00121558,0.00160528,-0.000568502,0.00128693,-0.00245673,0.00375249,0.00895878,0.0897967,4.06653e-05,-0.00271637,0.000426598,0.00102338,0.000645507,3.04393e-05,0.0106412,0.00639938,-0.00200837,0.00226595,-0.00123164,0.000349697,-0.00133863,0.000440933,-0.0122065,0.00160528,-0.000568502,0.00128693,-0.00245673,0.00375249,0.00895878,0,0,0,0,0,0,0,0,0,-0.000597484,6.36774e-07,0.000231619,-0.000267379,-0.000347489,-0.000233038,-2.99184e-05,3.65695e-05,0.000318974,0.000280552,-1.13611e-05,3.94056e-05
1273,0.00051179,-0.000452131,0.00452132,-0.00224345,0.110818,0.110818,0.110818,0.110818,0.110818,0.110818,0.110818,0.110818,0.110818,-0.860818,0.455824,-0.500741,1.09523,-0.000452131,0.00452132,-0.00224345,-0.00338372,0.000661954,0.000914346,0.0026882,-0.000204966,-0.00318814,0.110818,-0.0015714,0.0568724,-0.000446789,0.00307935,0.000942095,-0.00593401,0.0841411,-0.0573624,0.0189499,-0.00647948,-0.00201326,0.019022,-0.00112118,-0.00769836,-0.10092,-0.00338372,0.000661954,0.000914346,0.0026882,-0.000204966,-0.00318814,0,0,0,0,0,0,0,0,0,-0.000504099,-3.14639e-05,-0.000313809,-0.000392673,-0.000278736,0.00031596,0.000101502,4.10352e-05,0.00032492,0.000342476,-6.32175e-05,-6.11208e-05
1274,0.00051179,0.0157654,0.00242385,-0.00242391,0.113068,0.113068,0.113068,0.113068,0.113068,0.113068,0.113068,0.113068,0.113068,-0.886932,-0.50024,0.306415,1.06338,0.0157654,0.00242385,-0.00242391,0.00166351,-0.0010983,-0.00204024,0.00703087,0.0023435,0.00760537,0.113068,0.0795024,-0.956322,-0.00175362,0.0395085,-0.0654315,-0.0808266,0.298749,1.00599,-0.00417306,0.164291,0.0194679,0.111514,-0.206223,0.0604632,-0.407839,0.00166351,-0.0010983,-0.00204024,0.00703087,0.0023435,0.00760537,0,0,0,0,0,0,0,0,0,-0.000438645,0.000230338,-0.000419245,-0.000743783,-0.000362838,0.000390726,-0.000161202,0.000187828,0.000297986,-8.48854e-05,3.02863e-05,0.000164852
1275,0.00051179,0.0144701,0.0153775,0.00999089,0.0475393,0.0475393,0.0475393,0.0475393,0.0475393,0.0475393,0.0475393,0.0475393,0.0475393,-0.797539,0.197389,-0.547989,0.987585,0.0144701,0.0153775,0.00999089,-0.00912264,0.00265836,0.00447398,0.00317686,-0.00116704,0.00195873,0.0475393,0.000432029,-0.00809037,-0.000781171,0.0111824,0.000242037,-0.00114787,0.0268589,-0.00662178,0.020959,-0.00778861,-0.00451506,0.00403722,-0.0187713,-0.00302753,-0.040887,-0.00912264,0.00265836,0.00447398,0.00317686,-0.00116704,0.00195873,0,0,0,0,0,0,0,0,0,-0.000433594,-6.00412e-05,-0.000127849,-0.000328717,-0.000290805,0.00014662,0.000104091,-1.58752e-05,0.000363827,0.000361978,-4.09457e-05,-2.19322e-05
1276,0.00051179,0.000167406,0.0018875,0.0010313,0.113359,0.113359,0.113359,0.113359,0.113359,0.113359,0.113359,0.113359,0.113359,-0.863359,0.677375,-0.632634,1.26667,0.000167406,0.0018875,0.0010313,-0.00472382,-0.00186877,0.000944775,0.00109224,0.00335041,-0.00216195,0.113359,0.000889376,0.0139136,-0.00132488,0.0139163,0.00064466,-0.00108254,0.0112121,-0.0147256,0.004104,-0.0178189,-0.000233068,0.00396593,0.00201507,0.000175424,-0.0162093,-0.00472382,-0.00186877,0.000944775,0.00109224,0.00335041,-0.00216195,0,0,0,0,0,0,0,0,0,-0.000529416,-1.84514e-05,-0.000392908,-0.000469395,-0.00027799,0.000360971,2.6702e-05,0.000126764,0.000312552,0.000468017,-9.55911e-05,-9.2118e-06
1277,0.00051179,-0.000171008,-0.00410343,-0.0140083,0.000916142,0.000916142,0.000916142,0.000916142,0.000916142,0.000916142,0.000916142,0.000916142,0.000916142,-0.999084,-0.285491,0.984186,1.43119,-0.000171008,-0.00410343,-0.0140083,-0.0012247,0.001785,0.00331455,0.0129044,-0.000837982,-0.00111865,0.000916142,0.00100727,-0.000801999,-0.00030344,-0.00254936,0.000285685,-0.000155143,0.0128362,0.000687322,0.00199877,0.00308855,0.00026792,0.000153686,0.00356423,-0.00192681,0.00101838,-0.0012247,0.001785,0.00331455,0.0129044,-0.000837982,-0.00111865,0,0,0,0,0,0,0,0,0,-0.000690304,-1.45183e-05,-0.000134431,-0.000268909,-0.000352228,0.000149246,6.10848e-05,1.83306e-06,0.000297323,0.000300504,-7.53368e-06,-2.86584e-05
1278,0.00051179,0.00321141,-0.00115777,-0.00572145,0.0864422,0.0864422,0.0864422,0.0864422,0.0864422,0.0864422,0.0864422,0.0864422,0.0864422,-0.836442,-0.240059,-0.877782,1.23603,0.00321141,-0.00115777,-0.00572145,-0.00604107,0.0012759,0.00313174,0.000268813,-0.0021381,-0.00372656,0.0864422,0.000558987,0.00288699,-0.000633113,0.00316633,-0.000140422,0.000936523,-0.0018384,-0.00595798,-0.000213848,0.0025371,-0.000320345,-0.000691269,-0.00454566,-0.000200342,0.00825111,-0.00604107,0.0012759,0.00313174,0.000268813,-0.0021381,-0.00372656,0,0,0,0,0,0,0,0,0,-0.000329979,-1.66173e-05,0.000128596,-0.000312199,-0.000308508,-0.000122168,1.10679e-05,-2.82164e-05,0.000363566,0.000352882,3.63201e-06,-8.84141e-06
1279,0.00051179,-0.001896,-0.0237366,0.281144,0.00403211,0.00403211,0.00403211,0.00403211,0.00403211,0.00403211,0.00403211,0.00403211,0.00403211,-0.754032,-0.572835,-0.250809,0.979597,-0.001896,-0.0237366,0.281144,0.00348596,-0.0131642,0.0436208,0.0551963,0.0209096,-0.00595552,0.00403211,0.000414148,0.0139257,0.00108755,0.174524,-0.0091564,0.0011024,0.265433,-0.00287327,0.0364985,-0.0205056,-0.0259559,0.0789566,-0.130282,-0.0529728,-0.625533,0.00348596,-0.0131642,0.0436208,0.0551963,0.0209096,-0.00595552,0,0,0,0,0,0,0,0,0,-0.000766106,-2.2807e-05,0.000510227,-0.00196195,-0.000429595,-0.000630994,0.000416166,-1.31784e-05,0.000395827,0.00240918,-3.72848e-05,-0.000336949
1280,0.00051179,0.0184749,0.0243898,0.0104619,0.0044855,0.0044855,0.0044855,0.0044855,0.0044855,0.0044855,0.0044855,0.0044855,0.0044855,-0.754485,-0.85819,0.702317,1.34126,0.0184749,0.0243898,0.0104619,0.0146997,-0.00315814,-0.00583616,0.00313144,-0.0113501,0.00616934,0.0044855,0.000243679,-0.0235053,3.57702e-05,-0.0130004,0.000651377,0.000175666,0.00866353,0.00437903,-0.00128947,-0.00991314,-0.000413119,-0.00429944,-0.00147627,-0.000976797,-0.0148259,0.0146997,-0.00315814,-0.00583616,0.00313144,-0.0113501,0.00616934,0,0,0,0,0,0,0,0,0,-0.000441492,4.93577e-05,-0.000420522,-0.000451494,-0.000286663,0.000389298,-1.61493e-05,-8.94666e-05,0.000378333,0.000394889,-2.81661e-05,6.03635e-07
1281,0.00051179,0.000427581,0.00177445,0.00481084,0.0520618,0.0520618,0.0520618,0.0520618,0.0520618,0.0520618,0.0520618,0.0520618,0.0520618,-0.947938,-0.20483,0.441494,1.06558,0.000427581,0.00177445,0.00481084,-0.00162504,-0.00296531,0.000411248,0.00178208,0.00128594,0.000445934,0.0520618,0.013048,-0.118239,-0.000347249,-0.0138588,0.00800517,-0.0159184,0.0817506,0.109806,0.0238357,0.0363435,0.00441356,-0.0224581,-0.0242591,0.0161471,-0.0641033,-0.00162504,-0.00296531,0.000411248,0.00178208,0.00128594,0.000445934,0,0,0,0,0,0,0,0,0,-0.000576995,-4.77023e-06,-0.000144518,-0.000259302,-0.000359202,0.000111392,6.62037e-05,8.05672e-05,0.000305101,0.00010423,-2.35722e-05,2.108e-05
1282,0.00051179,0.0166029,0.0158186,0.00595915,0.0484247,0.0484247,0.0484247,0.0484247,0.0484247,0.0484247,0.0484247,0.0484247,0.0484247,-0.798425,0.0216418,-0.140017,0.810898,0.0166029,0.0158186,0.00595915,-0.0263623,-0.00124795,0.0332296,0.013442,-0.00136734,0.00372525,0.0484247,-0.177744,-0.546973,-0.0219339,-0.09311,-0.680597,-0.0766073,-1.36944,1.21097,-0.178201,-0.0510886,-0.0206205,-0.316415,0.12838,-0.0363005,1.6799,-0.0263623,-0.00124795,0.0332296,0.013442,-0.00136734,0.00372525,0,0,0,0,0,0,0,0,0,-0.000642538,-0.000557332,-0.00012285,-0.000440203,-0.000342304,-0.000108969,-0.000360594,-0.0001435,0.00035692,6.42576e-06,-7.63784e-05,0.000300325
1283,0.00051179,-0.00395898,-0.015139,0.0126542,0.0542639,0.0542639,0.0542639,0.0542639,0.0542639,0.0542639,0.0542639,0.0542639,0.0542639,-0.804264,-0.298796,0.430385,0.95987,-0.00395898,-0.015139,0.0126542,-0.0016299,0.00334626,0.00430991,-0.00703416,0.00959358,0.002485,0.0542639,0.00114192,-0.0386869,-0.000216953,0.00837985,-0.00125916,-0.00484577,0.0835561,0.043905,-0.00794096,0.0255213,0.000324007,-0.000853594,-0.0187622,0.00843258,-0.0953567,-0.0016299,0.00334626,0.00430991,-0.00703416,0.00959358,0.002485,0,0,0,0,0,0,0,0,0,-0.000557952,2.80494e-06,-0.0002199,-0.000288506,-0.000332678,0.000251193,-6.96308e-05,0.000115618,0.000331812,0.000283148,-1.64423e-05,5.98328e-05
1284,0.00051179,-0.000602583,-0.00401624,-0.00441602,0.0743251,0.0743251,0.0743251,0.0743251,0.0743251,0.0743251,0.0743251,0.0743251,0.0743251,-0.824325,-0.688517,-0.769828,1.32144,-0.000602583,-0.00401624,-0.00441602,-0.00555664,0.00213276,0.00250019,-0.00137144,-0.00449058,2.05268e-05,0.0743251,0.000553921,0.00560426,-0.000735156,0.00460944,0.00016974,-6.21229e-05,-0.000729858,-0.00517142,0.000593318,0.00472969,-0.000590667,0.000181901,-0.00532289,0.000871893,0.00496398,-0.00555664,0.00213276,0.00250019,-0.00137144,-0.00449058,2.05268e-05,0,0,0,0,0,0,0,0,0,-0.000475965,-1.93731e-05,0.000330808,-0.000429762,-0.000325048,-0.000316832,1.74988e-06,-0.000129088,0.000350982,0.000454143,7.82752e-05,1.01026e-05
1285,0.00051179,0.00880766,-0.0159378,0.0942762,0.0207924,0.0207924,0.0207924,0.0207924,0.0207924,0.0207924,0.0207924,0.0207924,0.0207924,-0.729208,-0.174445,-0.0674597,0.752812,0.00880766,-0.0159378,0.0942762,0.00969324,-0.0475309,0.0563851,0.0440537,0.00414654,-0.00725567,0.0207924,-0.554519,-3.55787,0.32469,3.19929,-1.84623,0.0498504,-1.85382,5.39529,-0.406582,0.777254,-0.0767163,0.375606,-3.96061,-0.10578,1.38394,0.00969324,-0.0475309,0.0563851,0.0440537,0.00414654,-0.00725567,0,0,0,0,0,0,0,0,0,-0.000782646,-0.00154676,0.00145019,0.00264603,-0.000212068,0.0013214,-0.000635268,-0.001314,0.00034447,-0.00158367,0.000588307,0.000612196
1286,0.00051179,0.00293422,-0.00447285,0.0212437,0.110985,0.110985,0.110985,0.110985,0.110985,0.110985,0.110985,0.110985,0.110985,-0.860985,-0.192222,0.0429173,0.883225,0.00293422,-0.00447285,0.0212437,0.0123233,-0.00697094,-0.00117599,0.00486694,-0.00616165,-0.000106588,0.110985,0.150122,1.05729,-0.0426766,-0.614318,0.243155,0.142298,0.682678,-1.30338,0.0713923,-0.0526867,-0.074059,0.256852,0.671477,-0.066303,-0.960773,0.0123233,-0.00697094,-0.00117599,0.00486694,-0.00616165,-0.000106588,0,0,0,0,0,0,0,0,0,-0.000489347,0.000613426,-0.000256616,0.00126275,-0.000385547,-0.00023986,0.000182494,-0.000626718,0.000414021,0.000148471,-0.000175488,-0.00053085
1287,0.00051179,-0.001369,-0.0163964,0.0243583,0.108658,0.108658,0.108658,0.108658,0.108658,0.108658,0.108658,0.108658,0.108658,-0.891342,-0.294377,0.0570116,0.940425,-0.001369,-0.0163964,0.0243583,0.0162213,-0.00325531,-0.0037888,0.00347969,-0.00827571,0.00232318,0.108658,0.261498,1.823,-0.0513078,-0.815946,0.0645555,0.141369,0.738368,-1.88619,0.0802351,-0.0288855,-0.0697373,0.0496874,0.861228,-0.0805968,-0.812414,0.0162213,-0.00325531,-0.0037888,0.00347969,-0.00827571,0.00232318,0,0,0,0,0,0,0,0,0,-0.000467129,0.00106187,-0.000301489,0.001289,-0.000400627,-0.000244142,9.18507e-05,-0.000558147,0.000422038,8.68039e-05,-0.000221984,-0.000718092
1288,0.00051179,0.0120847,0.000662568,-0.0101492,0.0802406,0.0802406,0.0802406,0.0802406,0.0802406,0.0802406,0.0802406,0.0802406,0.0802406,-0.919759,-0.0939664,0.471247,1.03772,0.0120847,0.000662568,-0.0101492,-0.00199346,0.0002341,0.00122902,0.00493385,-0.00092472,0.00354498,0.0802406,0.00759496,-0.0873826,-0.00086116,-0.00576745,0.00189049,-0.00969942,0.0757187,0.0734075,0.016735,0.00738365,0.00278969,-0.00728173,-0.00227877,0.0118505,-0.0582877,-0.00199346,0.0002341,0.00122902,0.00493385,-0.00092472,0.00354498,0,0,0,0,0,0,0,0,0,-0.000596978,-2.12223e-05,-6.86373e-05,-0.000244913,-0.000347847,6.23667e-05,5.91144e-05,4.73007e-05,0.00030715,0.000160209,-2.8651e-05,2.77475e-05
1289,0.00051179,-0.0015305,0.00612852,-0.00739749,0.0990145,0.0990145,0.0990145,0.0990145,0.0990145,0.0990145,0.0990145,0.0990145,0.0990145,-0.849014,0.12529,-0.616131,1.05648,-0.0015305,0.00612852,-0.00739749,-0.0058967,0.000482494,0.00249805,0.00143598,-0.00181228,-0.00242001,0.0990145,0.000377193,0.013798,-0.00169551,0.01549,0.000625054,-0.00216032,0.02825,-0.0128925,0.010301,-0.0011403,-0.00324538,0.00423437,-0.0204782,-0.000908144,-0.0250868,-0.0058967,0.000482494,0.00249805,0.00143598,-0.00181228,-0.00242001,0,0,0,0,0,0,0,0,0,-0.00040222,-3.09314e-05,-8.02292e-05,-0.000310319,-0.000301028,6.80991e-05,5.53512e-05,-1.53828e-05,0.000350818,0.000313696,-3.51938e-05,-1.99746e-05
1290,0.00051179,0.00274884,-0.000803806,0.0148804,0.0862103,0.0862103,0.0862103,0.0862103,0.0862103,0.0862103,0.0862103,0.0862103,0.0862103,-0.83621,0.823152,-0.455441,1.25867,0.00274884,-0.000803806,0.0148804,-0.00594407,-0.00677587,0.0020325,-0.00138394,0.0160663,0.00307307,0.0862103,-0.00128888,0.0326955,-0.000200264,-0.0147954,-0.00491104,-0.00252199,0.0567739,-0.0305333,0.0114633,-0.0771677,0.00552469,-0.00779177,0.0927669,-0.00424404,-0.0638625,-0.00594407,-0.00677587,0.0020325,-0.00138394,0.0160663,0.00307307,0,0,0,0,0,0,0,0,0,-0.000697494,-3.8098e-05,-0.000588073,-0.000654579,-0.00022533,0.000518312,4.84636e-05,0.000291382,0.000310943,0.000649684,-7.54722e-05,-7.78804e-06
1291,0.00051179,0.0195639,-0.00841313,0.0335902,0.026438,0.026438,0.026438,0.026438,0.026438,0.026438,0.026438,0.026438,0.026438,-0.776438,-0.0871223,-0.293418,0.83459,0.0195639,-0.00841313,0.0335902,-0.0105827,-0.00487699,0.00224662,-0.00441039,0.0121784,0.0183522,0.026438,-0.000240132,0.0238465,-0.000296347,0.0127243,0.00481914,-0.00353022,0.28566,-0.0482295,0.00986618,-0.0158555,-0.00860938,-0.00872649,0.0115443,-0.0257262,-0.310523,-0.0105827,-0.00487699,0.00224662,-0.00441039,0.0121784,0.0183522,0,0,0,0,0,0,0,0,0,-0.000530489,-3.94131e-05,8.04463e-05,-0.000601155,-0.000325197,-0.00013218,4.19801e-05,3.19707e-05,0.000375576,0.000588319,3.71909e-06,-2.21687e-05
1292,0.00051179,0.0197206,0.00872302,-0.0334632,0.0676391,0.0676391,0.0676391,0.0676391,0.0676391,0.0676391,0.0676391,0.0676391,0.0676391,-0.817639,-0.250349,-0.121323,0.863671,0.0197206,0.00872302,-0.0334632,-0.0352489,-0.0136919,0.00602947,2.96831e-05,-0.00164921,-0.00424707,0.0676391,-0.463985,-3.03593,0.177707,1.07583,-0.579647,-0.0934215,-2.17907,3.59585,-0.175154,0.247256,0.032338,-0.208865,-1.3318,0.0268209,2.4214,-0.0352489,-0.0136919,0.00602947,2.96831e-05,-0.00164921,-0.00424707,0,0,0,0,0,0,0,0,0,-0.000769697,-0.00174411,0.00106394,-0.000236311,-0.00026604,0.000576212,-0.000123562,0.000149269,0.000351742,-0.000637609,0.000157619,0.000864928
1293,0.00051179,0.0643659,0.0593085,0.315192,0.00325167,0.00325167,0.00325167,0.00325167,0.00325167,0.00325167,0.00325167,0.00325167,0.00325167,-0.753252,0.403526,-0.266799,0.895211,0.0643659,0.0593085,0.315192,-0.00131314,0.0725954,0.0142494,0.0258466,-0.0168652,0.0318357,0.00325167,0.000660434,-0.0496488,0.000888713,-0.0694178,-0.0059199,0.00127085,-0.105724,-0.00879715,0.0601486,0.163782,-0.0126183,0.043269,-0.153672,-0.036958,-0.252738,-0.00131314,0.0725954,0.0142494,0.0258466,-0.0168652,0.0318357,0,0,0,0,0,0,0,0,0,-0.000655778,-9.58253e-05,-0.000491214,-0.0014566,-0.000260765,0.00122606,0.000337414,-0.000358878,0.000370041,0.0016118,6.40442e-05,-0.000118173
1294,0.00051179,0.00840495,-0.0131517,0.0248179,0.0986656,0.0986656,0.0986656,0.0986656,0.0986656,0.0986656,0.0986656,0.0986656,0.0986656,-0.901334,-0.215067,-0.00228722,0.926641,0.00840495,-0.0131517,0.0248179,0.00567934,-0.00253771,-0.000896335,-0.0010976,-0.00216498,-0.00128243,0.0986656,-0.0121897,-0.120566,0.0133969,-0.0703333,0.00808399,0.144184,0.833299,0.104077,0.0114724,0.0367746,-0.0803959,0.228119,0.0467104,-0.0117693,-1.08624,0.00567934,-0.00253771,-0.000896335,-0.0010976,-0.00216498,-0.00128243,0,0,0,0,0,0,0,0,0,-0.00055436,-2.19511e-05,7.18207e-05,0.0011011,-0.000356102,3.67715e-05,6.24747e-05,-0.000564684,0.000421643,0.000331771,-0.000260925,-5.4658e-05
1295,0.00051179,0.000817553,-0.0011391,-0.00734142,0.0845769,0.0845769,0.0845769,0.0845769,0.0845769,0.0845769,0.0845769,0.0845769,0.0845769,-0.8372,-0.336517,-0.915423,1.28536,0.000817553,-0.0011391,-0.00734142,-0.00551109,0.000549965,0.00323334,-0.00135588,-0.00134596,-0.00309788,0.0845769,0.000903204,-0.000697162,-0.000489764,0.00285141,3.64551e-05,0.00109614,-0.00113248,-0.000156846,-0.000611456,0.00165535,-0.000116657,-0.000439918,-0.00336766,-0.00061065,0.00891382,-0.00551109,0.000549965,0.00323334,-0.00135588,-0.00134596,-0.00309788,0,0,0,0,0,0,0,0,0,-0.000332288,-1.11736e-05,0.000167386,-0.000330873,-0.000307882,-0.000166784,2.0292e-06,-3.565e-05,0.000362396,0.000374168,2.10238e-05,-6.67679e-06
1296,0.00051179,0.00912324,-0.0175881,-0.0242863,0.00978758,0.00978758,0.00978758,0.00978758,0.00978758,0.00978758,0.00978758,0.00978758,0.00978758,-0.990212,-0.68651,0.373762,1.26155,0.00912324,-0.0175881,-0.0242863,0.00893509,0.00390288,-0.00172778,0.0133243,0.0278487,-0.0177665,0.00978758,0.0542152,-0.24848,0.0143141,-0.0797553,-0.0605945,-0.0359738,0.0243596,0.299951,0.00935335,0.0605725,-0.00558238,0.0729275,0.036771,0.0156302,-0.0730007,0.00893509,0.00390288,-0.00172778,0.0133243,0.0278487,-0.0177665,0,0,0,0,0,0,0,0,0,-0.000405103,0.000219184,-0.000575792,-0.000228132,-0.000398034,0.000757961,1.6821e-05,7.26735e-05,0.000306726,-0.000148884,0.00014999,-0.000107249
1297,0.00051179,-0.0208306,-0.0344264,-0.0104288,0.0521447,0.0521447,0.0521447,0.0521447,0.0521447,0.0521447,0.0521447,0.0521447,0.0521447,-0.802145,-0.280251,-0.244609,0.8842,-0.0208306,-0.0344264,-0.0104288,-0.0105213,0.0137361,-0.0267097,0.000838634,0.0362013,-0.0030522,0.0521447,-0.0313711,1.34939,0.00335903,-0.211566,0.000745732,-0.061725,1.50661,-1.32931,-0.0223868,-0.189972,0.00871331,-0.0342548,0.435965,-0.102301,-1.46193,-0.0105213,0.0137361,-0.0267097,0.000838634,0.0362013,-0.0030522,0,0,0,0,0,0,0,0,0,-0.000623919,-1.47004e-05,0.000452183,-0.00140063,-0.000319416,-0.000281232,8.70209e-05,0.000322803,0.000340648,0.000516287,0.000126344,-0.000332003
1298,0.00051179,-0.0363636,0.0139723,-0.00734317,0.0467526,0.0467526,0.0467526,0.0467526,0.0467526,0.0467526,0.0467526,0.0467526,0.0467526,-0.796753,-0.755617,-0.0659855,1.10006,-0.0363636,0.0139723,-0.00734317,-0.00619006,0.00547531,0.0192457,-0.0311348,0.00215751,-0.0196608,0.0467526,-1.39129,-15.6862,-0.128723,-1.07765,1.27369,0.478601,0.988743,14.4489,-0.0942874,-0.62189,0.0576567,-0.204516,1.68557,0.245783,-0.776884,-0.00619006,0.00547531,0.0192457,-0.0311348,0.00215751,-0.0196608,0,0,0,0,0,0,0,0,0,-0.00113287,-0.00549113,-0.000197868,0.00600015,-0.000485027,-0.0010346,0.000869179,0.00143241,0.000469416,-0.00102168,-0.000834264,0.0026269
1299,0.00051179,-0.0130569,-0.00597018,-0.0199654,0.0665649,0.0665649,0.0665649,0.0665649,0.0665649,0.0665649,0.0665649,0.0665649,0.0665649,-0.933435,0.145923,-0.32427,0.998872,-0.0130569,-0.00597018,-0.0199654,-0.00472066,-0.00369482,-0.00286035,0.00287716,-0.00675968,-0.00334808,0.0665649,-0.0373654,0.228443,-0.00168096,0.0342918,-0.0283889,-0.0346201,-0.014595,-0.186997,-0.0222206,0.0305865,-0.00758832,-0.0418302,-0.0589081,-0.0143137,0.0763906,-0.00472066,-0.00369482,-0.00286035,0.00287716,-0.00675968,-0.00334808,0,0,0,0,0,0,0,0,0,-0.000516549,-0.000119171,-0.000116631,-0.000492918,-0.000327045,6.28729e-05,-5.45802e-06,-9.42324e-05,0.000318527,0.000118114,-4.92476e-05,2.95035e-06
1300,0.00051179,-0.00227235,-0.00313772,0.000693769,0.0329372,0.0329372,0.0329372,0.0329372,0.0329372,0.0329372,0.0329372,0.0329372,0.0329372,-0.967063,-0.719242,0.885333,1.49544,-0.00227235,-0.00313772,0.000693769,-0.00625913,0.000767345,-0.0035052,0.00463916,0.00769698,0.00402633,0.0329372,0.00129326,-0.00513363,0.000120021,-0.00146621,0.00183593,0.000466943,0.00266941,0.00557005,0.000465048,0.000235827,-0.000392891,-7.66358e-05,0.0043681,-0.0022033,-0.00328654,-0.00625913,0.000767345,-0.0035052,0.00463916,0.00769698,0.00402633,0,0,0,0,0,0,0,0,0,-0.000564858,-2.70925e-05,-0.000298395,-0.000385141,-0.000364417,0.000307269,2.32579e-05,2.04442e-05,0.000298366,0.000354758,5.25967e-05,6.85207e-06
1301,0.00051179,-0.010087,-0.00914815,0.0196964,0.0307515,0.0307515,0.0307515,0.0307515,0.0307515,0.0307515,0.0307515,0.0307515,0.0307515,-0.969248,0.965608,-0.330846,1.40759,-0.010087,-0.00914815,0.0196964,-0.000345754,-0.000558272,-0.0253853,0.0089727,-0.0319692,-0.0222626,0.0307515,0.0209725,-0.265602,0.00809068,0.0137628,-0.151382,0.0418791,-0.160099,0.427071,-0.000315176,-0.0140475,0.00983974,-0.145919,0.00943289,0.0225899,0.286322,-0.000345754,-0.000558272,-0.0253853,0.0089727,-0.0319692,-0.0222626,0,0,0,0,0,0,0,0,0,-0.000887804,6.89666e-05,-0.000902239,-0.000811666,-0.000280822,0.000977563,9.12043e-06,0.000151974,0.000183038,0.000976604,-0.000373269,-3.25308e-05
1302,0.00051179,-0.000552893,-0.0210505,0.00147653,0.085967,0.085967,0.085967,0.085967,0.085967,0.085967,0.085967,0.085967,0.085967,-0.914033,-0.539185,0.111963,1.0671,-0.000552893,-0.0210505,0.00147653,0.00489086,-0.012044,0.00374343,-0.00222141,0.00302686,-0.00899357,0.085967,0.608816,3.97289,-0.00433826,-0.623691,-0.482958,0.035795,-0.460191,-3.48938,0.0878354,0.185077,-0.00159669,-0.0988917,0.459664,-0.111879,0.557606,0.00489086,-0.012044,0.00374343,-0.00222141,0.00302686,-0.00899357,0,0,0,0,0,0,0,0,0,-0.000350736,0.00240109,-0.000386491,0.000842198,-0.00039717,0.000222668,-0.00023937,3.16325e-05,0.000400141,-0.000446814,-1.73308e-05,-0.0012718
1303,0.00051179,0.0001781,-0.00249315,0.00171859,0.0707764,0.0707764,0.0707764,0.0707764,0.0707764,0.0707764,0.0707764,0.0707764,0.0707764,-0.929224,-0.718428,0.904421,1.48242,0.0001781,-0.00249315,0.00171859,-0.00369742,-2.24318e-05,-0.00398193,0.0044175,0.00433442,0.00557188,0.0707764,0.00116642,-0.00293688,-2.06158e-05,-0.000638756,0.0014415,0.0005229,-0.00112584,0.00131728,-7.44928e-05,-0.000163539,-0.000364964,0.000147364,0.00329544,-0.00169919,-0.00074011,-0.00369742,-2.24318e-05,-0.00398193,0.0044175,0.00433442,0.00557188,0,0,0,0,0,0,0,0,0,-0.000573397,-1.92143e-05,-0.000291801,-0.000390556,-0.000352854,0.00029137,1.51558e-05,4.04541e-06,0.000311986,0.000355966,3.56491e-05,1.28042e-05
1304,0.00051179,-0.00971304,0.0115128,0.0204217,0.0506381,0.0506381,0.0506381,0.0506381,0.0506381,0.0506381,0.0506381,0.0506381,0.0506381,-0.949362,0.433262,0.00142928,1.04355,-0.00971304,0.0115128,0.0204217,0.00295394,-0.00567439,-0.0263481,-0.000899223,0.00989166,-0.0120782,0.0506381,0.0213261,-0.17063,-0.00696933,0.0577958,0.0270502,0.190645,1.36941,0.153292,0.0205455,0.00500617,0.0388936,-0.207399,-0.0743148,0.00138019,-1.18244,0.00295394,-0.00567439,-0.0263481,-0.000899223,0.00989166,-0.0120782,0,0,0,0,0,0,0,0,0,-0.000575729,8.30598e-05,-0.000110513,0.00128045,-0.000300283,-1.59239e-05,5.98912e-05,0.000279769,0.000446312,0.000362524,0.000208084,-9.18306e-05
1305,0.00051179,0.0010487,0.000566623,-0.001935,0.108765,0.108765,0.108765,0.108765,0.108765,0.108765,0.108765,0.108765,0.108765,-0.891235,-0.0952684,-0.837434,1.22665,0.0010487,0.000566623,-0.001935,-0.00683607,0.000440237,0.00197609,-0.00310702,-0.00228304,-0.00192156,0.108765,-0.000249669,0.00967079,-0.00106665,0.00593446,-0.000107122,0.000658482,-0.0030729,-0.0106124,-0.000824006,0.00112364,-0.000494191,0.000103413,-0.00762473,-0.000700217,0.00490448,-0.00683607,0.000440237,0.00197609,-0.00310702,-0.00228304,-0.00192156,0,0,0,0,0,0,0,0,0,-0.000328474,-1.96919e-05,4.92178e-05,-0.000305744,-0.000304127,-5.54819e-05,-3.91835e-06,-1.72468e-05,0.000344299,0.00033209,-1.05255e-05,2.62789e-06
1306,0.00051179,0.00375795,-0.0432266,-0.0391953,0.026812,0.026812,0.026812,0.026812,0.026812,0.026812,0.026812,0.026812,0.026812,-0.776812,-0.376389,-0.155418,0.877075,0.00375795,-0.0432266,-0.0391953,-0.0177472,0.0587196,-0.0358673,-0.0600141,0.0652159,0.0169652,0.026812,-0.525684,5.9142,0.100333,-1.48537,0.112182,-0.423559,-0.714408,-6.03014,-0.164763,-0.32636,0.0917215,0.0773031,1.85495,-0.426689,0.6763,-0.0177472,0.0587196,-0.0358673,-0.0600141,0.0652159,0.0169652,0,0,0,0,0,0,0,0,0,-0.000943474,-0.001358,0.00133174,-0.00412647,-0.000275666,0.000258781,0.000235267,0.00122993,0.000273407,-0.000467788,0.000339445,-0.000689467
1307,0.00051179,0.000126098,-0.00205445,0.00199824,0.0726713,0.0726713,0.0726713,0.0726713,0.0726713,0.0726713,0.0726713,0.0726713,0.0726713,-0.90596,-0.746004,0.927329,1.49574,0.000126098,-0.00205445,0.00199824,-0.00178054,-0.000334028,-0.00379019,0.00408677,0.00249596,0.00643352,0.0726713,0.00115229,-0.00190727,-0.00018581,-0.000786617,0.00142661,0.000512987,-0.000844806,0.000354562,-0.000353815,-0.000179055,-0.000346227,-0.000130088,0.00302012,-0.00147315,-0.00102335,-0.00178054,-0.000334028,-0.00379019,0.00408677,0.00249596,0.00643352,0,0,0,0,0,0,0,0,0,-0.000574887,-1.24471e-05,-0.000291003,-0.000404399,-0.000346566,0.000285805,9.35892e-06,-7.11279e-06,0.000319958,0.000371627,2.86101e-05,1.5496e-05
1308,0.00051179,-0.00568706,0.00101449,-0.0101977,0.0181936,0.0181936,0.0181936,0.0181936,0.0181936,0.0181936,0.0181936,0.0181936,0.0181936,-0.846018,-0.376942,-0.981806,1.34973,-0.00568706,0.00101449,-0.0101977,-0.00322553,-0.0014346,0.00147027,-0.0042044,-0.00051438,-0.000626904,0.0181936,0.00153847,-0.00818642,-0.000190966,0.00219803,0.000320172,0.000667505,0.00206931,0.0135533,-0.000969457,0.000138408,0.000109448,-0.000214296,-0.00335093,-0.00130365,0.0083427,-0.00322553,-0.0014346,0.00147027,-0.0042044,-0.00051438,-0.000626904,0,0,0,0,0,0,0,0,0,-0.000316136,1.7087e-06,0.000168345,-0.000365448,-0.000303591,-0.000184601,-1.57253e-05,-3.80848e-05,0.000358246,0.000386826,3.40355e-05,4.91253e-07
1309,0.00051179,-0.000539387,0.0179975,-0.00099485,0.0175813,0.0175813,0.0175813,0.0175813,0.0175813,0.0175813,0.0175813,0.0175813,0.0175813,-0.982419,0.972256,0.670361,1.53617,-0.000539387,0.0179975,-0.00099485,-0.00135761,-0.0031857,0.00534253,-0.00169844,-0.00898952,0.0161614,0.0175813,0.00166573,-0.00588992,0.000430651,-0.00451904,0.00389944,-0.0012468,0.00812195,0.00252986,-0.000424074,-0.00738651,-0.00072197,0.00710431,-0.006092,0.000202682,-0.0142314,-0.00135761,-0.0031857,0.00534253,-0.00169844,-0.00898952,0.0161614,0,0,0,0,0,0,0,0,0,-0.000411592,-1.52475e-05,0.000390329,-0.000558935,-0.000303263,-0.000417879,-2.74006e-05,-4.61966e-06,0.000229679,0.000599892,-9.24952e-05,6.50321e-05
1310,0.00051179,0.000112455,-0.00136392,0.000943545,0.124982,0.124982,0.124982,0.124982,0.124982,0.124982,0.124982,0.124982,0.124982,-0.875018,0.68035,-0.619941,1.26998,0.000112455,-0.00136392,0.000943545,-0.00403035,-0.00201708,0.0011032,0.000431709,0.00200859,-0.00189603,0.124982,0.000671104,0.0199112,-0.00153285,0.015263,0.00107068,-0.00144732,0.0159964,-0.0210944,0.00462131,-0.0189147,-5.91576e-06,0.00510103,0.00501561,-0.000364382,-0.022041,-0.00403035,-0.00201708,0.0011032,0.000431709,0.00200859,-0.00189603,0,0,0,0,0,0,0,0,0,-0.000536449,-1.61424e-05,-0.000402289,-0.000472409,-0.000280524,0.00036679,2.59189e-05,0.000123763,0.000306666,0.000468968,-0.000103736,-1.06482e-05
1311,0.00051179,-0.00142542,0.00162811,-0.00618027,0.0696576,0.0696576,0.0696576,0.0696576,0.0696576,0.0696576,0.0696576,0.0696576,0.0696576,-0.819658,-0.415242,-0.715442,1.16453,-0.00142542,0.00162811,-0.00618027,-0.00744681,0.00183041,0.00412681,0.00454844,-0.00578038,-0.00374519,0.0696576,0.000474051,0.00969616,-0.000926785,0.00662418,-0.000989623,-0.00051073,0.0147969,-0.00728112,0.00383691,0.00421399,-0.00144675,-0.00245962,-0.0124663,0.000522234,-0.00615698,-0.00744681,0.00183041,0.00412681,0.00454844,-0.00578038,-0.00374519,0,0,0,0,0,0,0,0,0,-0.000415735,-3.27749e-05,0.000244325,-0.000336039,-0.000325674,-0.000235289,4.40156e-05,-9.38103e-05,0.00036554,0.0003722,2.15389e-05,-1.40259e-05
1312,0.00051179,-0.00974441,0.0453764,-0.0300431,0.0380389,0.0380389,0.0380389,0.0380389,0.0380389,0.0380389,0.0380389,0.0380389,0.0380389,-0.788039,-0.204745,0.170218,0.831805,-0.00974441,0.0453764,-0.0300431,0.00308156,-0.0453955,-0.00981987,-0.012399,0.0340298,-0.00415953,0.0380389,0.163926,-2.25538,-0.0468458,0.438777,0.208774,-0.140313,0.192342,2.05635,0.158549,0.200891,0.0637142,-0.28569,-0.685045,0.126843,0.123392,0.00308156,-0.0453955,-0.00981987,-0.012399,0.0340298,-0.00415953,0,0,0,0,0,0,0,0,0,-0.000397392,0.000332144,-0.000687473,-0.00160207,-0.000420267,-0.000234941,0.000227857,0.000762113,0.00031466,0.000100732,0.000215328,0.000110524
1313,0.00051179,0.00164353,0.00076984,0.00174013,0.120272,0.120272,0.120272,0.120272,0.120272,0.120272,0.120272,0.120272,0.120272,-0.879728,0.0993233,0.653145,1.10018,0.00164353,0.00076984,0.00174013,-0.00420157,0.000135565,0.000397014,0.00281585,-0.000258506,0.00427095,0.120272,0.000937775,-0.0138468,8.48249e-05,0.00338044,0.00031729,-0.00112867,0.0239586,0.011886,-0.00137495,-0.000285676,-0.000886394,-0.0013554,-0.0038646,0.00265457,-0.0243433,-0.00420157,0.000135565,0.000397014,0.00281585,-0.000258506,0.00427095,0,0,0,0,0,0,0,0,0,-0.00063698,-2.22066e-05,5.78299e-05,-0.000211328,-0.000337655,-5.5626e-05,1.31688e-06,9.6692e-06,0.000313409,0.000204011,-2.11182e-05,2.874e-05
1314,0.00051179,-0.0249634,0.00328922,0.00134048,0.0922372,0.0922372,0.0922372,0.0922372,0.0922372,0.0922372,0.0922372,0.0922372,0.0922372,-0.907763,-0.774727,0.102598,1.19782,-0.0249634,0.00328922,0.00134048,0.000328735,-0.0128033,0.00468375,-0.00901943,0.010647,-0.00886038,0.0922372,0.551231,4.4818,0.0939556,0.43507,-0.19574,0.188715,-0.271965,-4.26109,0.0349602,0.23167,0.0209641,-0.0130713,-0.670029,-0.154103,0.283695,0.000328735,-0.0128033,0.00468375,-0.00901943,0.010647,-0.00886038,0,0,0,0,0,0,0,0,0,-0.000283562,0.00227949,-0.000192933,0.00156323,-0.000316465,0.00100446,-0.000348609,0.000353786,0.000410177,0.000370759,-3.76747e-05,-0.00129313
1315,0.00051179,0.00174918,-0.00650995,0.00103501,0.0838938,0.0838938,0.0838938,0.0838938,0.0838938,0.0838938,0.0838938,0.0838938,0.0838938,-0.833894,-0.780049,-0.711817,1.34556,0.00174918,-0.00650995,0.00103501,-0.00394754,0.0023978,0.0035667,-0.000440249,-0.00352923,0.00203464,0.0838938,0.00133826,0.00140306,-0.000847988,0.00524715,-0.00043752,0.000222601,-0.00533406,-0.00271472,0.000848098,0.00910872,-0.000947213,-0.000524524,-0.00784592,0.00135668,0.00482357,-0.00394754,0.0023978,0.0035667,-0.000440249,-0.00352923,0.00203464,0,0,0,0,0,0,0,0,0,-0.000534065,-1.44193e-05,0.000372554,-0.000472547,-0.000329996,-0.000357056,6.66291e-07,-0.000150304,0.000338666,0.00051044,0.00010554,1.55837e-05
1316,0.00051179,-0.000839912,0.00288279,-0.00654792,0.0841378,0.0841378,0.0841378,0.0841378,0.0841378,0.0841378,0.0841378,0.0841378,0.0841378,-0.834138,0.39133,-0.695761,1.15456,-0.000839912,0.00288279,-0.00654792,-0.00583588,0.000614874,0.00256025,0.00532634,0.00191425,-0.00395202,0.0841378,0.000338629,0.0100538,-0.00103449,0.00961703,0.00121012,-0.000816759,0.0105514,-0.010424,0.00436424,-0.00423048,-0.00113291,0.00169807,-0.00826934,0.000671227,-0.00570154,-0.00583588,0.000614874,0.00256025,0.00532634,0.00191425,-0.00395202,0,0,0,0,0,0,0,0,0,-0.000417866,-2.85392e-05,-0.000219218,-0.000354979,-0.000286454,0.000215022,4.73999e-05,6.03453e-05,0.00034494,0.000372414,-5.25319e-05,-1.74569e-05
1317,0.00051179,0.00241483,0.00328182,-0.0067213,0.0236477,0.0236477,0.0236477,0.0236477,0.0236477,0.0236477,0.0236477,0.0236477,0.0236477,-0.773648,0.648752,-0.78287,1.27761,0.00241483,0.00328182,-0.0067213,-0.0103646,-0.00177469,-0.00210375,0.00153303,0.00786205,-0.00141527,0.0236477,0.000663891,-0.000193318,-0.00039386,0.00731544,0.000193935,4.90285e-05,0.00580387,-0.00241545,0.00261871,-0.0022812,-0.000810992,0.00121509,-0.00831606,0.00126839,-0.000297658,-0.0103646,-0.00177469,-0.00210375,0.00153303,0.00786205,-0.00141527,0,0,0,0,0,0,0,0,0,-0.000453331,-4.19314e-05,-0.000300088,-0.00045119,-0.00026908,0.000278402,2.73308e-05,0.000135051,0.00035502,0.000430643,-6.45404e-05,5.83774e-06
1318,0.00051179,0.240997,0.06125,-0.1974,0.0236175,0.0236175,0.0236175,0.0236175,0.0236175,0.0236175,0.0236175,0.0236175,0.0236175,-0.66142,0.73377,0.0763825,0.990822,0.240997,0.06125,-0.1974,-0.159391,0.0131465,0.00977707,0.131459,-0.0228746,-0.0176089,0.0236175,5.78126,24.6044,-0.151382,1.84145,-4.60365,-0.19376,1.98401,-20.2418,0.810047,-2.3078,0.0085039,-0.633192,0.405101,0.464234,-1.15342,-0.159391,0.0131465,0.00977707,0.131459,-0.0228746,-0.0176089,0,0,0,0,0,0,0,0,0,0.00168251,0.0200209,-0.000205278,0.0262969,-0.000530744,-0.00117707,-0.00338093,-0.00281692,-0.00103664,-0.0281368,0.00267321,-0.00585534
1319,0.00051179,0.00620079,-0.00979596,-0.00530481,0.0980448,0.0980448,0.0980448,0.0980448,0.0980448,0.0980448,0.0980448,0.0980448,0.0980448,-0.848045,0.781419,0.136879,1.16126,0.00620079,-0.00979596,-0.00530481,-0.00378793,-0.00375842,0.0138961,0.00480419,0.00150834,0.0157072,0.0980448,0.817982,5.65122,-0.116907,-0.524935,-0.557761,-0.0958318,-4.05225,-5.09966,0.0391139,-0.381139,0.0159863,0.318244,0.91587,-0.154791,3.73931,-0.00378793,-0.00375842,0.0138961,0.00480419,0.00150834,0.0157072,0,0,0,0,0,0,0,0,0,-8.62256e-05,0.00324132,2.53229e-05,-0.000271146,-0.00043639,-0.00123197,-0.000610057,-0.000276928,0.000318147,-0.000548211,0.000451875,-0.00152507
1320,0.00051179,-0.00878409,-0.00255837,0.00309149,0.0999359,0.0999359,0.0999359,0.0999359,0.0999359,0.0999359,0.0999359,0.0999359,0.0999359,-0.900064,0.683545,0.58699,1.27354,-0.00878409,-0.00255837,0.00309149,-0.00174825,-0.00083508,0.000793278,0.000972286,-0.000467696,0.00497762,0.0999359,0.00262459,-0.0350016,-0.00114923,0.0227704,-0.000382299,-0.00362082,0.0464344,0.044168,-0.000565635,-0.00651701,-8.85818e-05,0.00277873,-0.013695,0.00462325,-0.0523046,-0.00174825,-0.00083508,0.000793278,0.000972286,-0.000467696,0.00497762,0,0,0,0,0,0,0,0,0,-0.000486918,-8.17662e-06,0.000379142,-0.000392875,-0.000337595,-0.000398985,-1.05251e-05,4.00187e-05,0.000289969,0.000364599,-4.55815e-05,3.54461e-05
1321,0.00051179,-0.00773136,-0.00349097,0.00716529,0.0999582,0.0999582,0.0999582,0.0999582,0.0999582,0.0999582,0.0999582,0.0999582,0.0999582,-0.849958,0.552455,0.575653,1.16577,-0.00773136,-0.00349097,0.00716529,-0.00245102,-0.000812724,0.000600575,-0.00411136,0.00343172,0.0103583,0.0999582,0.00143863,-0.0276661,-0.000446729,0.0130117,-0.000289315,-0.00212619,0.040303,0.0356868,-0.0032223,0.00204093,-0.000318906,0.00308422,-0.0115617,0.00335154,-0.0505525,-0.00245102,-0.000812724,0.000600575,-0.00411136,0.00343172,0.0103583,0,0,0,0,0,0,0,0,0,-0.000530697,-1.12509e-05,0.000336869,-0.000323834,-0.000353361,-0.000349463,-4.28573e-05,4.01281e-05,0.000309177,0.000308577,-9e-06,6.23602e-05
1322,0.00051179,0.00221393,0.000378091,-0.00637136,0.116666,0.116666,0.116666,0.116666,0.116666,0.116666,0.116666,0.116666,0.116666,-0.866666,0.214153,-0.452973,1.00108,0.00221393,0.000378091,-0.00637136,-0.00186956,0.00126077,-0.00296689,-0.00286818,-0.00699567,-0.000983326,0.116666,-0.00409447,0.0944872,-6.62133e-05,-0.000886115,0.00241661,-0.00937625,0.125325,-0.0991177,0.0169886,0.0208621,-0.00596538,0.00482653,-0.0203541,-0.0112904,-0.12378,-0.00186956,0.00126077,-0.00296689,-0.00286818,-0.00699567,-0.000983326,0,0,0,0,0,0,0,0,0,-0.000468381,-2.50694e-05,-0.000143246,-0.000419267,-0.00030371,0.000155192,7.5353e-05,-6.92229e-05,0.000335962,0.000295835,-6.03876e-05,-5.66179e-05
1323,0.00051179,0.00900877,-0.00887159,0.00326478,0.0191522,0.0191522,0.0191522,0.0191522,0.0191522,0.0191522,0.0191522,0.0191522,0.0191522,-0.980848,0.490527,-0.0329372,1.09716,0.00900877,-0.00887159,0.00326478,0.00969845,-0.00233148,-0.0192431,-0.00771812,0.0153422,-0.0119158,0.0191522,-0.122673,-1.28025,-0.0167201,-0.0693842,0.152322,0.148716,1.00669,1.11892,-0.00219108,0.0566293,0.0128699,-0.25469,0.0216265,0.0389379,-0.75527,0.00969845,-0.00233148,-0.0192431,-0.00771812,0.0153422,-0.0119158,0,0,0,0,0,0,0,0,0,-0.000612251,-0.000454265,-0.000163125,0.000763541,-0.00030371,-2.73906e-05,6.10642e-05,0.000184714,0.000437982,0.000531192,9.74069e-05,0.000245721
1324,0.00051179,-0.000399113,-0.0089812,-0.0353034,0.107796,0.107796,0.107796,0.107796,0.107796,0.107796,0.107796,0.107796,0.107796,-0.857796,0.646955,-0.137747,1.08321,-0.000399113,-0.0089812,-0.0353034,-0.00069961,3.87914e-05,0.0125408,0.0192513,-0.0177064,0.0058409,0.107796,-0.898498,-5.70823,0.012935,0.00175403,0.912943,-0.191992,-3.6678,4.79568,-0.0998236,0.324579,-0.0129673,0.171127,-0.317352,0.0751061,3.53197,-0.00069961,3.87914e-05,0.0125408,0.0192513,-0.0177064,0.0058409,0,0,0,0,0,0,0,0,0,-0.000995614,-0.00345888,-0.000289581,-0.0007444,-0.000240618,0.000419319,0.000634241,-0.000350202,0.000304669,-0.00105011,4.34649e-05,0.00144184
1325,0.00051179,-0.00860982,-0.000627231,-0.00233904,0.0130698,0.0130698,0.0130698,0.0130698,0.0130698,0.0130698,0.0130698,0.0130698,0.0130698,-0.911231,0.0654432,-0.98693,1.34486,-0.00860982,-0.000627231,-0.00233904,-0.0075952,-0.00192192,0.00217824,-0.00756859,-0.000918444,0.00182023,0.0130698,0.00230856,-0.0106732,-0.00017079,0.00140174,1.26143e-05,0.000402693,0.000481678,0.0192704,-0.00153674,0.00101772,0.000120527,0.000129233,-0.00179222,-0.00148128,0.00172812,-0.0075952,-0.00192192,0.00217824,-0.00756859,-0.000918444,0.00182023,0,0,0,0,0,0,0,0,0,-0.00028073,-1.02181e-05,-3.33685e-05,-0.000335016,-0.00030666,1.24415e-05,-2.93117e-05,2.05001e-05,0.000333019,0.000360825,-2.84792e-05,1.79097e-05
1326,0.00051179,0.00108514,-0.00291779,-0.00431671,0.0177152,0.0177152,0.0177152,0.0177152,0.0177152,0.0177152,0.0177152,0.0177152,0.0177152,-0.927135,0.871212,-0.982285,1.60732,0.00108514,-0.00291779,-0.00431671,-0.00234982,0.000814836,0.000477917,-0.00223899,-0.00547555,0.0051149,0.0177152,0.00308533,-0.0204978,-0.000430934,0.000239754,0.00167216,0.000132322,0.00163637,0.0177405,2.48235e-05,0.00330863,7.93999e-05,-0.00020962,-0.000630592,-0.00151195,0.00288996,-0.00234982,0.000814836,0.000477917,-0.00223899,-0.00547555,0.0051149,0,0,0,0,0,0,0,0,0,-0.000415988,1.22643e-06,-0.000252306,-0.000560651,-0.000333661,0.000256145,-1.3522e-05,0.000100412,0.000251032,0.000566753,-0.000154373,1.55637e-05
1327,0.00051179,-0.0237865,0.00386957,-0.017655,0.00629406,0.00629406,0.00629406,0.00629406,0.00629406,0.00629406,0.00629406,0.00629406,0.00629406,-0.993706,-0.60528,-0.480817,1.25897,-0.0237865,0.00386957,-0.017655,-0.00640356,-0.00111452,-0.00568227,-0.00220401,0.00708013,0.0280074,0.00629406,-0.0262593,0.258901,-0.00327962,0.000788159,0.0330843,-0.0237009,0.142743,-0.268199,-0.0122003,-0.057801,-0.00250168,0.0338227,0.0531433,-0.0140405,-0.158911,-0.00640356,-0.00111452,-0.00568227,-0.00220401,0.00708013,0.0280074,0,0,0,0,0,0,0,0,0,-0.000554182,-0.000125122,0.000440061,-0.000345872,-0.00029161,-0.000484002,-3.3829e-05,-0.000100277,0.000306472,5.20402e-05,0.000146062,0.000108027
1328,0.00051179,0.0114546,0.00147182,0.0113713,0.0783364,0.0783364,0.0783364,0.0783364,0.0783364,0.0783364,0.0783364,0.0783364,0.0783364,-0.828336,-0.772466,0.497602,1.23711,0.0114546,0.00147182,0.0113713,0.00166524,2.883e-05,0.00221608,-0.00470887,-0.0144824,0.00388772,0.0783364,0.00235702,-0.0220654,0.00059206,-0.0190641,0.00248718,-0.00129617,0.0318759,0.00812362,-0.00357549,-0.0117125,-0.00299406,0.000153827,0.0293049,0.0029847,-0.043401,0.00166524,2.883e-05,0.00221608,-0.00470887,-0.0144824,0.00388772,0,0,0,0,0,0,0,0,0,-0.000393577,1.70994e-05,-0.0005359,-0.000423641,-0.000302488,0.000542109,-4.44337e-05,-0.000139099,0.0003433,0.00043284,-3.56659e-05,3.13502e-05
1329,0.00051179,-0.0526552,-0.0991055,0.0148506,0.0566932,0.0566932,0.0566932,0.0566932,0.0566932,0.0566932,0.0566932,0.0566932,0.0566932,-0.678496,-0.794469,-0.0433068,1.04566,-0.0526552,-0.0991055,0.0148506,0.0338656,0.0280218,0.0487245,-0.0492741,-0.015808,0.0333921,0.0566932,-2.7304,-16.543,-0.205515,0.00878266,2.18401,0.573364,-8.38618,14.4117,-0.33718,-1.91901,0.105264,-0.808143,2.00933,-0.447583,9.17947,0.0338656,0.0280218,0.0487245,-0.0492741,-0.015808,0.0333921,0,0,0,0,0,0,0,0,0,-0.00171613,-0.00944748,-0.000319757,0.0247485,-0.00060969,-0.00145517,0.00210294,0.00508158,-0.000215016,-0.0185276,-0.00418702,0.00196426
1330,0.00051179,-0.0177121,0.0138167,-0.0449211,0.000406186,0.000406186,0.000406186,0.000406186,0.000406186,0.000406186,0.000406186,0.000406186,0.000406186,-0.999594,-0.529989,0.35639,1.18621,-0.0177121,0.0138167,-0.0449211,0.0251707,0.00745673,-0.000437442,0.0157546,0.00869805,-0.0211778,0.000406186,0.0860861,-0.355718,0.00404931,-0.068652,-0.0823638,-0.0539929,0.00664293,0.455794,0.0287446,0.09972,0.00858398,0.0912692,-0.0448847,0.0198741,-0.0529911,0.0251707,0.00745673,-0.000437442,0.0157546,0.00869805,-0.0211778,0,0,0,0,0,0,0,0,0,-0.000481479,0.00037807,-0.000401267,-0.000151273,-0.000401998,0.000516327,4.42818e-05,0.000160807,0.000325128,-0.000393031,1.20135e-05,-0.000184733
1331,0.00051179,0.000470005,0.000697128,0.0235406,0.0169375,0.0169375,0.0169375,0.0169375,0.0169375,0.0169375,0.0169375,0.0169375,0.0169375,-0.983062,-0.242098,0.460445,1.11222,0.000470005,0.000697128,0.0235406,-0.000918653,-0.00202952,-0.00226466,0.00319537,-0.00140254,-0.00403771,0.0169375,0.0162174,-0.116301,-0.000689141,-0.00320485,0.00855145,-0.0172077,0.0521721,0.107279,0.0258446,0.0429897,0.00527829,-0.0247644,-0.0404819,0.0160568,-0.0509484,-0.000918653,-0.00202952,-0.00226466,0.00319537,-0.00140254,-0.00403771,0,0,0,0,0,0,0,0,0,-0.000576079,1.14656e-05,-0.000159439,-0.000235912,-0.000364626,0.000132253,8.01714e-05,7.34724e-05,0.00030373,4.11885e-05,-3.47148e-05,-4.93268e-06
1332,0.00051179,-0.00199281,0.00859813,0.00155742,0.0562508,0.0562508,0.0562508,0.0562508,0.0562508,0.0562508,0.0562508,0.0562508,0.0562508,-0.943749,0.858933,0.613272,1.41581,-0.00199281,0.00859813,0.00155742,0.000604361,-0.00136441,0.0014987,0.00332144,-0.00687781,0.00918041,0.0562508,0.00257285,-0.02018,-0.000874929,0.010499,0.00658112,-0.00235799,0.0201221,0.0155916,-0.000349866,-0.00573814,-0.000610509,-0.00161536,-0.013359,0.00174671,-0.0200641,0.000604361,-0.00136441,0.0014987,0.00332144,-0.00687781,0.00918041,0,0,0,0,0,0,0,0,0,-0.000428312,-3.81692e-06,0.000421682,-0.000500184,-0.000318641,-0.000444076,-4.8451e-06,2.16703e-05,0.000259131,0.000491591,-9.65535e-05,3.49327e-05
1333,0.00051179,0.00443339,0.0158935,0.0260118,0.0815543,0.0815543,0.0815543,0.0815543,0.0815543,0.0815543,0.0815543,0.0815543,0.0815543,-0.831554,-0.605991,-0.221152,1.05243,0.00443339,0.0158935,0.0260118,-0.0125597,0.0011551,0.00504735,-0.00875862,0.00760028,0.00281261,0.0815543,-0.245825,2.97928,-0.011292,-0.06764,0.258998,-0.251504,0.371945,-3.24272,0.000823332,-0.177056,-0.00532807,0.324286,0.228803,-0.201571,-0.722242,-0.0125597,0.0011551,0.00504735,-0.00875862,0.00760028,0.00281261,0,0,0,0,0,0,0,0,0,-0.000837319,-0.000755297,0.000429913,-0.00246289,-0.000399733,-0.000531283,0.000496953,3.39661e-05,0.000284232,-1.68118e-06,-1.1244e-05,-0.000457162
1334,0.00051179,0.0241344,-0.0104587,-0.0416348,0.0768305,0.0768305,0.0768305,0.0768305,0.0768305,0.0768305,0.0768305,0.0768305,0.0768305,-0.889422,0.923169,0.215159,1.29985,0.0241344,-0.0104587,-0.0416348,-0.00638859,0.010473,-0.0203337,-0.00377764,0.0175466,-0.00568812,0.0768305,0.134725,0.188036,-0.0541937,-0.0721407,0.41357,0.0403094,-1.17325,-0.625741,-0.00230511,0.085696,0.032908,-0.213606,-0.0030966,-0.0912084,1.42849,-0.00638859,0.010473,-0.0203337,-0.00377764,0.0175466,-0.00568812,0,0,0,0,0,0,0,0,0,-0.000153616,0.000612424,0.000759433,-0.000487558,-0.0004273,-0.00119664,-5.96722e-05,0.000334615,0.000297129,0.000687315,0.000169931,-0.000513741
1335,0.00051179,-0.0448513,-0.0190112,0.0100727,0.014129,0.014129,0.014129,0.014129,0.014129,0.014129,0.014129,0.014129,0.014129,-0.764129,0.399345,0.119437,0.870422,-0.0448513,-0.0190112,0.0100727,-0.0228089,0.0456136,0.0767708,0.0656487,-0.0153801,-0.00908433,0.014129,1.33974,6.8772,0.266187,0.680622,-0.435748,-0.566755,-9.81399,-6.3966,0.367555,0.0321267,-0.13058,0.202707,-0.693738,0.379132,9.60121,-0.0228089,0.0456136,0.0767708,0.0656487,-0.0153801,-0.00908433,0,0,0,0,0,0,0,0,0,4.03374e-05,0.00413829,0.00182309,-0.00276586,-0.000188077,0.00129492,-0.000280346,-0.000965906,0.000197351,-0.00213398,-0.000493699,-0.000596127
1336,0.00051179,-0.00290284,-0.00166469,-0.00436511,0.0439252,0.0439252,0.0439252,0.0439252,0.0439252,0.0439252,0.0439252,0.0439252,0.0439252,-0.895368,0.375118,-0.956075,1.36253,-0.00290284,-0.00166469,-0.00436511,-0.00483802,7.85906e-05,0.00129189,-0.00799838,-0.00147761,-0.00132366,0.0439252,0.00169136,-0.00775397,-0.000419579,0.00207443,-0.000253381,0.000873178,-0.000207056,0.0109102,-0.000966104,0.00109993,8.49934e-05,7.69837e-05,-0.00150967,-0.0014151,0.00449518,-0.00483802,7.85906e-05,0.00129189,-0.00799838,-0.00147761,-0.00132366,0,0,0,0,0,0,0,0,0,-0.00032077,1.40117e-06,-0.000155042,-0.000363915,-0.000312442,0.000151632,-2.76879e-05,5.37409e-05,0.00032331,0.000385566,-6.7667e-05,3.44071e-06
1337,0.00051179,0.0011414,0.00572897,-0.004359,0.0563089,0.0563089,0.0563089,0.0563089,0.0563089,0.0563089,0.0563089,0.0563089,0.0563089,-0.943691,0.374453,-0.535016,1.14761,0.0011414,0.00572897,-0.004359,-0.00340727,-0.00210468,-0.00294056,-0.00380704,-0.00423905,0.00375306,0.0563089,-0.00516109,0.0830437,-0.00167083,-0.00413902,0.000861998,-0.00915031,0.0574831,-0.0850471,0.00603913,0.0158661,-0.00456986,0.0110451,-0.0174561,-0.00638428,-0.0641692,-0.00340727,-0.00210468,-0.00294056,-0.00380704,-0.00423905,0.00375306,0,0,0,0,0,0,0,0,0,-0.000466593,-3.24947e-05,-0.000245431,-0.000339867,-0.000305051,0.000207676,2.15075e-05,-2.04851e-05,0.000309117,0.000218958,-6.76041e-05,-2.809e-06
1338,0.00051179,0.00470734,0.0120245,-0.00629229,0.0231965,0.0231965,0.0231965,0.0231965,0.0231965,0.0231965,0.0231965,0.0231965,0.0231965,-0.773196,-0.264431,0.639108,1.03741,0.00470734,0.0120245,-0.00629229,0.00305949,-0.00390133,0.00195734,-0.0105884,-0.00358311,0.00421444,0.0231965,0.000363544,-0.00751806,0.000258036,-0.00503177,0.000417327,0.000168383,0.0116105,0.00239339,-0.00551869,-0.00525406,-0.000725611,-6.23503e-05,-0.00173863,0.000523418,-0.00525586,0.00305949,-0.00390133,0.00195734,-0.0105884,-0.00358311,0.00421444,0,0,0,0,0,0,0,0,0,-0.000611879,2.62839e-05,-0.000171329,-0.000214499,-0.000320638,0.000134896,-7.13669e-05,1.43716e-06,0.000346035,0.000235756,-4.45244e-05,3.2858e-05
1339,0.00051179,0.00151517,-0.00511731,0.000973493,0.104874,0.104874,0.104874,0.104874,0.104874,0.104874,0.104874,0.104874,0.104874,-0.895126,0.586502,-0.815096,1.34522,0.00151517,-0.00511731,0.000973493,-0.00230334,-0.00104362,0.00127611,-0.00152096,-0.00178925,0.00131051,0.104874,-0.000181481,0.0066637,-0.000994734,0.00582721,0.000357933,0.000544786,-0.00816898,-0.0085368,-0.000852035,-3.40721e-05,3.76999e-06,0.000596104,-0.000675829,-0.000610445,0.00659938,-0.00230334,-0.00104362,0.00127611,-0.00152096,-0.00178925,0.00131051,0,0,0,0,0,0,0,0,0,-0.000418745,-7.62671e-06,-0.000265807,-0.000414061,-0.000306213,0.000245424,-7.06756e-06,8.23343e-05,0.000307292,0.00043227,-0.000100189,8.29773e-06
1340,0.00051179,0.00756025,-0.0133652,0.00650406,0.0610955,0.0610955,0.0610955,0.0610955,0.0610955,0.0610955,0.0610955,0.0610955,0.0610955,-0.811096,-0.543734,-0.150474,0.988011,0.00756025,-0.0133652,0.00650406,0.00641656,-0.0023096,0.0213566,-0.0371996,0.011545,0.00253887,0.0610955,-0.935036,-1.64941,0.0653496,-0.239398,0.833204,-0.472587,-5.58722,0.80865,-0.139919,-0.315958,0.0502293,0.441329,0.568721,-0.210007,5.13938,0.00641656,-0.0023096,0.0213566,-0.0371996,0.011545,0.00253887,0,0,0,0,0,0,0,0,0,-0.00106527,-0.00312786,0.000730018,-0.00330205,-0.000350291,-9.96185e-05,0.000629646,0.00052972,0.000263676,-0.00121025,8.80233e-05,0.000477896
1341,0.00051179,-0.119063,-0.0193647,0.0309021,0.0446455,0.0446455,0.0446455,0.0446455,0.0446455,0.0446455,0.0446455,0.0446455,0.0446455,-0.794645,-0.819335,0.166784,1.15351,-0.119063,-0.0193647,0.0309021,-0.00152687,0.0318539,0.00415745,0.0173373,-0.0408618,-0.0346166,0.0446455,0.497562,-4.62826,0.110269,-0.422974,-0.168289,-0.33884,-1.68449,4.91561,0.00275735,0.179557,-0.115302,0.269415,0.262781,0.179406,1.38417,-0.00152687,0.0318539,0.00415745,0.0173373,-0.0408618,-0.0346166,0,0,0,0,0,0,0,0,0,-2.75671e-07,0.00171758,2.5051e-05,-0.00344756,-0.000145847,0.00139618,-0.000662126,-0.000613278,0.000335343,0.000100733,-0.00094836,-3.86509e-05
1342,0.00051179,-0.00201959,0.000584621,-0.00777948,0.0716051,0.0716051,0.0716051,0.0716051,0.0716051,0.0716051,0.0716051,0.0716051,0.0716051,-0.821605,-0.0871059,-0.586312,1.01311,-0.00201959,0.000584621,-0.00777948,-0.00674686,-6.85044e-05,0.00215345,0.000963255,-0.0012766,-0.000335949,0.0716051,0.000684276,0.00690847,-0.00131833,0.0116674,6.65689e-05,-0.00144267,0.0343086,-0.00495545,0.0148501,0.00661475,-0.00433849,0.000601,-0.0188668,-0.00148176,-0.0271302,-0.00674686,-6.85044e-05,0.00215345,0.000963255,-0.0012766,-0.000335949,0,0,0,0,0,0,0,0,0,-0.00040935,-3.94665e-05,4.91141e-05,-0.000318263,-0.000315154,-6.29824e-05,6.99133e-05,-4.50573e-05,0.000363521,0.000325371,-1.10936e-05,-1.82421e-05
1343,0.00051179,-0.0128375,-0.00992212,-0.00222916,0.111628,0.111628,0.111628,0.111628,0.111628,0.111628,0.111628,0.111628,0.111628,-0.888372,-0.877265,-0.322244,1.28943,-0.0128375,-0.00992212,-0.00222916,-0.00458608,0.00552987,-0.000668943,-0.00539196,-0.0104271,-0.00110041,0.111628,-0.0201769,0.368682,-0.0181858,0.137825,-0.0590472,-0.00810153,0.16407,-0.296797,0.0102838,0.0731574,-0.0236967,-0.0592561,-0.20106,-0.000660222,-0.102585,-0.00458608,0.00552987,-0.000668943,-0.00539196,-0.0104271,-0.00110041,0,0,0,0,0,0,0,0,0,-0.000806443,-9.8855e-05,0.00067767,-0.000762827,-0.000403816,-0.00080423,4.94187e-05,-0.000470057,0.000296608,0.000675122,0.00012882,1.61566e-05
1344,0.00051179,0.00152717,0.00414549,-0.00458514,0.100723,0.100723,0.100723,0.100723,0.100723,0.100723,0.100723,0.100723,0.100723,-0.850723,0.253363,-0.707575,1.13516,0.00152717,0.00414549,-0.00458514,-0.0057843,-6.91637e-05,0.00172825,0.00335848,-0.000993324,-0.00381682,0.100723,3.53605e-05,0.0115983,-0.00132858,0.0116224,0.000986225,-0.000855964,0.00626931,-0.0141117,0.00374333,-0.00447985,-0.00120094,0.00283918,-0.011288,0.000454079,-0.00452335,-0.0057843,-6.91637e-05,0.00172825,0.00335848,-0.000993324,-0.00381682,0,0,0,0,0,0,0,0,0,-0.000387952,-2.64256e-05,-0.000147603,-0.000329656,-0.000295723,0.000133626,3.78281e-05,2.82455e-05,0.000346363,0.000338379,-5.01881e-05,-1.44946e-05
1345,0.00051179,0.00468624,-0.00389418,0.00507564,0.0324248,0.0324248,0.0324248,0.0324248,0.0324248,0.0324248,0.0324248,0.0324248,0.0324248,-0.828781,0.912823,0.967575,1.56727,0.00468624,-0.00389418,0.00507564,0.00363472,-0.00148403,0.00649161,0.000706882,0.00435473,0.00428333,0.0324248,0.000979975,-0.00296361,-0.00051304,-6.38459e-05,-0.000654698,0.000311054,-0.00211513,-0.00106794,-0.0010397,0.000128614,-0.000305691,-0.000680424,0.00382941,-0.000985969,-0.00228008,0.00363472,-0.00148403,0.00649161,0.000706882,0.00435473,0.00428333,0,0,0,0,0,0,0,0,0,-0.000580266,1.43282e-05,0.000244513,-0.000416268,-0.000341827,-0.000264483,-1.04094e-05,6.65086e-05,0.000316888,0.000484294,-2.60182e-05,7.74152e-06
1346,0.00051179,-0.0038859,-0.000402862,-0.00949538,0.00257168,0.00257168,0.00257168,0.00257168,0.00257168,0.00257168,0.00257168,0.00257168,0.00257168,-0.811428,0.800243,-0.997428,1.51449,-0.0038859,-0.000402862,-0.00949538,0.00104791,0.000751626,-0.00296983,-0.000215885,0.00122941,0.00433329,0.00257168,0.00127073,-0.0101146,-0.000128888,0.00337427,-0.000410341,8.84607e-05,-0.00319877,0.0144109,3.62229e-05,0.00174258,0.000413257,-0.000135609,-0.00471399,-0.00100313,0.0128298,0.00104791,0.000751626,-0.00296983,-0.000215885,0.00122941,0.00433329,0,0,0,0,0,0,0,0,0,-0.000389673,5.28264e-06,-0.000241281,-0.000553984,-0.000305796,0.000247509,-7.20884e-06,0.000121178,0.00032299,0.00052517,-0.000104752,1.03402e-05
1347,0.00051179,0.0303664,-0.00315847,-0.0044525,0.0226779,0.0226779,0.0226779,0.0226779,0.0226779,0.0226779,0.0226779,0.0226779,0.0226779,-0.977322,-0.201011,-0.297955,1.04132,0.0303664,-0.00315847,-0.0044525,-0.00750581,-0.00178639,-0.00653528,0.00040905,-0.0129373,0.00242907,0.0226779,-0.0703407,0.197551,0.013527,-0.00902654,-0.0759953,-0.0435499,-0.0556414,-0.151922,-0.037702,0.0172348,0.00884851,-0.0687993,-0.00504983,-0.00644205,0.128893,-0.00750581,-0.00178639,-0.00653528,0.00040905,-0.0129373,0.00242907,0,0,0,0,0,0,0,0,0,-0.000522442,-0.000251749,9.59775e-05,-0.000414837,-0.000313187,2.14284e-05,-4.89811e-05,9.32732e-06,0.000329532,-8.60144e-05,-5.0215e-05,0.000117419
1348,0.00051179,-0.0341291,-0.0986392,0.00653744,0.0451033,0.0451033,0.0451033,0.0451033,0.0451033,0.0451033,0.0451033,0.0451033,0.0451033,-0.795103,0.652671,-0.124773,1.03621,-0.0341291,-0.0986392,0.00653744,0.0376227,-0.0264711,0.0518967,-0.0385243,-0.0351193,0.0131113,0.0451033,-1.50745,-9.81951,0.030204,0.611454,1.435,-0.485656,-9.39327,8.41863,-0.183345,0.653949,-0.0139521,0.584801,-1.16676,-0.159244,8.80193,0.0376227,-0.0264711,0.0518967,-0.0385243,-0.0351193,0.0131113,0,0,0,0,0,0,0,0,0,-0.00128475,-0.00522858,-0.000273596,-0.00241093,-0.000218416,0.000310924,0.00101123,-0.000729741,0.000233568,-0.00192667,0.000239027,0.00138991
1349,0.00051179,0.00179772,-0.003483,0.00455877,0.0367764,0.0367764,0.0367764,0.0367764,0.0367764,0.0367764,0.0367764,0.0367764,0.0367764,-0.786776,-0.661981,-0.350021,1.08616,0.00179772,-0.003483,0.00455877,-0.0282283,0.00273922,0.00357731,0.0275991,-0.0182836,0.00607966,0.0367764,-0.00114439,0.127796,-0.00160813,0.053737,0.00944323,-0.00709873,0.301595,-0.139037,0.0221416,0.0511632,-0.0150259,0.0341551,-0.101417,-0.0216441,-0.340309,-0.0282283,0.00273922,0.00357731,0.0275991,-0.0182836,0.00607966,0,0,0,0,0,0,0,0,0,-0.000670262,-0.000152406,0.000497751,-0.000810673,-0.000423217,-0.00048644,0.000243161,-0.00029554,0.000364169,0.000775458,-3.75557e-05,-8.33648e-05
1350,0.00051179,-0.00730035,0.00545514,0.0174167,0.0203604,0.0203604,0.0203604,0.0203604,0.0203604,0.0203604,0.0203604,0.0203604,0.0203604,-0.77036,-0.120285,-0.402943,0.87766,-0.00730035,0.00545514,0.0174167,0.00525191,-0.00213175,-0.00210297,0.00445716,0.00454536,0.015331,0.0203604,-0.0011131,0.0181576,-0.000345878,-0.000365033,-0.00030818,-0.000937376,0.0406103,-0.0105491,0.0237742,0.0121709,-0.00746621,0.00112801,-0.017261,-0.00982055,-0.059155,0.00525191,-0.00213175,-0.00210297,0.00445716,0.00454536,0.015331,0,0,0,0,0,0,0,0,0,-0.000479035,-2.30145e-05,7.47091e-05,-0.000424123,-0.000329191,-9.94854e-05,9.74485e-05,-2.19466e-05,0.000379302,0.000393719,-7.26198e-06,-1.6156e-05
1351,0.00051179,-0.00798678,-0.0194576,0.0189996,0.0526825,0.0526825,0.0526825,0.0526825,0.0526825,0.0526825,0.0526825,0.0526825,0.0526825,-0.802683,-0.512596,0.239295,0.981996,-0.00798678,-0.0194576,0.0189996,0.0146429,-0.000522923,-0.0413846,0.0127281,0.0152263,-0.00269656,0.0526825,0.0636326,-2.39727,0.00154252,0.185538,-0.074961,-0.108228,2.4464,2.48021,-0.037943,0.191843,0.0189609,0.229354,-0.357924,0.169475,-2.69475,0.0146429,-0.000522923,-0.0413846,0.0127281,0.0152263,-0.00269656,0,0,0,0,0,0,0,0,0,-0.000328839,0.000137717,-0.000549992,-0.00207609,-0.000337029,0.000560188,-0.000379734,0.000279917,0.000285178,0.000579962,6.19547e-05,0.00058023
1352,0.00051179,0.00169653,0.00145536,0.00245852,0.089771,0.089771,0.089771,0.089771,0.089771,0.089771,0.089771,0.089771,0.089771,-0.910229,0.722561,0.493249,1.2625,0.00169653,0.00145536,0.00245852,-0.0033219,0.000334024,-0.00151975,0.00206854,-0.00315824,0.00371025,0.089771,0.00596823,-0.0659001,-0.00440346,0.0284132,-0.00948039,-0.00882813,0.052577,0.073684,-0.00474568,0.0033102,0.00213141,0.019281,-0.0331788,0.00964769,-0.0743165,-0.0033219,0.000334024,-0.00151975,0.00206854,-0.00315824,0.00371025,0,0,0,0,0,0,0,0,0,-0.00043077,-2.14584e-06,0.000457868,-0.000454789,-0.000337595,-0.000498563,-2.87632e-05,4.53827e-05,0.000280246,0.00035131,-5.56511e-05,5.14123e-05
1353,0.00051179,0.000382617,0.00150821,-0.00414336,0.0810725,0.0810725,0.0810725,0.0810725,0.0810725,0.0810725,0.0810725,0.0810725,0.0810725,-0.918927,-0.0778384,-0.617465,1.10984,0.000382617,0.00150821,-0.00414336,-0.00347182,0.00194342,0.00151974,-0.00497934,-0.000256779,-0.00158333,0.0810725,-0.00124089,0.0285141,-0.00272571,0.0144351,-0.000589719,-0.00387075,0.0235053,-0.028307,0.00566207,0.00263438,-0.00428221,0.000130163,-0.0185777,-0.00207219,-0.0194921,-0.00347182,0.00194342,0.00151974,-0.00497934,-0.000256779,-0.00158333,0,0,0,0,0,0,0,0,0,-0.000396907,-1.46957e-05,4.37816e-05,-0.000320113,-0.000307703,-5.16044e-05,1.22815e-05,-3.01781e-05,0.000334971,0.000296603,-1.52118e-05,-9.40968e-06
1354,0.00051179,0.0190334,0.0155225,0.0145249,0.0667147,0.0667147,0.0667147,0.0667147,0.0667147,0.0667147,0.0667147,0.0667147,0.0667147,-0.816715,0.0507895,0.139907,0.830167,0.0190334,0.0155225,0.0145249,0.0180777,-0.0016775,0.0139239,-0.00926506,0.00301706,-0.00383264,0.0667147,0.173151,0.540216,0.0346183,0.128779,0.59504,-0.0502045,-1.19439,-1.15429,0.181236,0.0448163,-0.0236152,-0.289937,-0.189118,-0.017704,1.4698,0.0180777,-0.0016775,0.0139239,-0.00926506,0.00301706,-0.00383264,0,0,0,0,0,0,0,0,0,-0.000453077,0.000561916,0.000204757,-0.000303145,-0.000319565,0.000124651,0.00046563,-0.000118851,0.000334576,-5.96604e-05,-8.71306e-05,-0.00050191
1355,0.00051179,1.50129e-05,-0.00159657,-0.00181984,0.103668,0.103668,0.103668,0.103668,0.103668,0.103668,0.103668,0.103668,0.103668,-0.896332,0.211071,-0.864193,1.26285,1.50129e-05,-0.00159657,-0.00181984,-0.00553893,-0.00121675,0.00129121,-0.00345665,-0.00231623,-0.00048785,0.103668,0.00016208,0.00484506,-0.000900351,0.00477654,0.000263803,0.00111567,-0.00476263,-0.00512388,-0.000983702,-3.68862e-05,-0.000107685,0.000684241,-0.00314308,-0.000839535,0.00589823,-0.00553893,-0.00121675,0.00129121,-0.00345665,-0.00231623,-0.00048785,0,0,0,0,0,0,0,0,0,-0.000330113,-1.40251e-05,-0.000106365,-0.000323355,-0.000305707,8.51938e-05,-9.34264e-06,2.80742e-05,0.000333406,0.000347424,-5.23134e-05,6.22222e-06
1356,0.00051179,-0.003065,0.00121524,0.0027147,0.108597,0.108597,0.108597,0.108597,0.108597,0.108597,0.108597,0.108597,0.108597,-0.891403,0.477591,0.808594,1.2948,-0.003065,0.00121524,0.0027147,-0.000415048,0.000112323,0.000476792,0.00281552,1.48683e-05,0.00392483,0.108597,0.000298098,-0.000700493,0.000521071,-0.00637821,0.000325532,0.000234682,0.00433007,0.00343996,-0.000725674,8.2955e-05,-0.000857761,0.000292884,0.00508001,-0.000637557,-0.00733765,-0.000415048,0.000112323,0.000476792,0.00281552,1.48683e-05,0.00392483,0,0,0,0,0,0,0,0,0,-0.000621997,-6.65418e-06,0.000219619,-0.000307697,-0.000332916,-0.000213285,4.37981e-06,2.20488e-05,0.000305355,0.000314812,-3.04777e-05,1.03669e-05
1357,0.00051179,-0.0455399,-0.0254966,0.0625095,0.0296674,0.0296674,0.0296674,0.0296674,0.0296674,0.0296674,0.0296674,0.0296674,0.0296674,-0.779667,0.715579,-0.0746593,1.0609,-0.0455399,-0.0254966,0.0625095,0.0870129,-0.043665,0.0773425,-0.0326086,-0.00450218,-0.00196862,0.0296674,-1.89666,-21.6083,0.0894926,0.428008,1.77621,0.27285,-2.49262,19.8776,-0.183351,0.988492,-0.0560773,-0.10674,-1.391,0.136098,2.53685,0.0870129,-0.043665,0.0773425,-0.0326086,-0.00450218,-0.00196862,0,0,0,0,0,0,0,0,0,-0.00132415,-0.00686575,7.18204e-05,0.00584378,-0.000191266,0.000386456,0.00110267,-0.00131673,0.000348352,-0.00234186,0.000710933,0.00285312
1358,0.00051179,0.00841189,0.00699944,-0.00452146,0.0584623,0.0584623,0.0584623,0.0584623,0.0584623,0.0584623,0.0584623,0.0584623,0.0584623,-0.808462,0.921124,-0.723347,1.42313,0.00841189,0.00699944,-0.00452146,-0.0037592,-0.00450347,-0.00308282,-0.00108906,0.00159133,0.00219529,0.0584623,0.00128557,-0.00444875,-0.000820331,0.00392839,-0.000739485,0.000443779,-0.00591726,-0.00322366,0.000575555,-0.0066843,-0.000136669,0.00426502,-0.00424353,0.00236675,0.0061737,-0.0037592,-0.00450347,-0.00308282,-0.00108906,0.00159133,0.00219529,0,0,0,0,0,0,0,0,0,-0.000576936,-1.41854e-05,-0.00038205,-0.000615059,-0.000269646,0.000328812,-4.38471e-06,0.00015027,0.000313774,0.000588669,-0.000135724,2.0993e-05
1359,0.00051179,-0.00611189,0.00302121,-0.0241127,0.0629918,0.0629918,0.0629918,0.0629918,0.0629918,0.0629918,0.0629918,0.0629918,0.0629918,-0.812992,-0.801804,-0.360191,1.19732,-0.00611189,0.00302121,-0.0241127,-0.0206739,0.00643813,0.00710358,0.00893461,-0.0329297,0.00485618,0.0629918,-0.00101654,0.100536,-0.00463849,0.0839749,0.00725703,-0.00572224,0.131901,-0.101681,0.0158831,0.0821677,-0.0181168,0.00655678,-0.169164,-0.00740182,-0.114345,-0.0206739,0.00643813,0.00710358,0.00893461,-0.0329297,0.00485618,0,0,0,0,0,0,0,0,0,-0.000736125,-0.000109123,0.000606491,-0.000726038,-0.000432039,-0.000588494,0.000123417,-0.000472611,0.000353061,0.000739851,-3.78534e-05,-1.33993e-05
1360,0.00051179,0.010938,-0.0339918,0.00953157,0.0554788,0.0554788,0.0554788,0.0554788,0.0554788,0.0554788,0.0554788,0.0554788,0.0554788,-0.944521,0.554178,0.292095,1.13338,0.010938,-0.0339918,0.00953157,0.00357784,-0.00872108,0.00714875,0.00915814,7.68807e-05,-0.00282023,0.0554788,0.14951,-0.6383,0.00412679,0.0314861,-0.14516,-0.0926663,-0.200811,0.772522,0.0226972,-0.143663,-0.0208827,0.117178,0.146168,0.0338537,0.0741015,0.00357784,-0.00872108,0.00714875,0.00915814,7.68807e-05,-0.00282023,0,0,0,0,0,0,0,0,0,-0.000419863,0.000516234,0.000425517,-0.000474264,-0.00030526,-0.00047146,-8.99266e-05,-0.000152191,0.000277936,-0.000380911,-5.58673e-05,-9.4036e-05
1361,0.00051179,-0.000769615,-0.0117469,0.0767665,0.0261679,0.0261679,0.0261679,0.0261679,0.0261679,0.0261679,0.0261679,0.0261679,0.0261679,-0.776168,0.913102,0.0450823,1.19926,-0.000769615,-0.0117469,0.0767665,-0.0614169,-0.0204269,-0.0730045,0.00198326,-0.00924435,-0.0213556,0.0261679,1.11813,12.1757,-0.188687,-1.76089,0.827472,1.15398,6.03549,-13.0024,0.0190478,-0.381624,-0.0927242,0.660865,2.15426,-0.386767,-6.77312,-0.0614169,-0.0204269,-0.0730045,0.00198326,-0.00924435,-0.0213556,0,0,0,0,0,0,0,0,0,-0.000100903,0.00451092,0.000118499,0.00941472,-0.000512356,-0.00220964,-0.000667484,-0.00400016,0.000741266,0.00139503,0.00298048,-0.00281325
1362,0.00051179,0.00371181,0.00271043,-0.00688255,0.0471551,0.0471551,0.0471551,0.0471551,0.0471551,0.0471551,0.0471551,0.0471551,0.0471551,-0.797155,0.571862,-0.827183,1.28324,0.00371181,0.00271043,-0.00688255,-0.00860757,-0.000155153,-0.000452831,0.00195308,0.00469681,-0.00219276,0.0471551,0.000513211,0.00337716,-0.000527553,0.004598,0.000169135,0.000327665,-0.00123798,-0.00725811,0.000803662,-0.000977613,-0.000490365,0.000451442,-0.00633082,0.000758301,0.00766908,-0.00860757,-0.000155153,-0.000452831,0.00195308,0.00469681,-0.00219276,0,0,0,0,0,0,0,0,0,-0.000411846,-3.26579e-05,-0.000257499,-0.000414936,-0.00028258,0.000250672,2.15976e-05,0.000108891,0.000350147,0.000413684,-6.68263e-05,6.41641e-07
1363,0.00051179,0.0113437,-0.0315141,-0.038676,0.0117419,0.0117419,0.0117419,0.0117419,0.0117419,0.0117419,0.0117419,0.0117419,0.0117419,-0.761742,-0.897763,-0.514405,1.28485,0.0113437,-0.0315141,-0.038676,-0.0162308,-0.00442493,0.00249758,0.00618681,-0.014049,0.011238,0.0117419,0.00089027,-0.00384423,-0.000850432,0.0271385,-0.00326575,0.000726759,0.0295915,-0.00423371,-0.0041555,0.0151185,-0.0039024,-0.0205544,-0.0107429,0.00565283,0.0296389,-0.0162308,-0.00442493,0.00249758,0.00618681,-0.014049,0.011238,0,0,0,0,0,0,0,0,0,-0.000693835,-8.08352e-05,0.000490788,-0.000652183,-0.000405902,-0.000543541,6.02392e-06,-0.000299654,0.000376545,0.000684426,0.00012014,8.03214e-05
1364,0.00051179,0.00378513,-0.000255788,0.00253885,0.0402297,0.0402297,0.0402297,0.0402297,0.0402297,0.0402297,0.0402297,0.0402297,0.0402297,-0.853248,0.95977,0.883168,1.55858,0.00378513,-0.000255788,0.00253885,-0.00164867,-0.00257925,-0.00250238,-0.000740428,0.00238293,0.00422113,0.0402297,0.000941053,-0.0025833,-0.000109486,-0.00116295,-0.00166324,0.000284221,-0.00126528,0.000461412,-0.000516044,-0.00157997,-0.000628607,-0.00158761,0.0029987,-0.00102054,0.000314039,-0.00164867,-0.00257925,-0.00250238,-0.000740428,0.00238293,0.00422113,0,0,0,0,0,0,0,0,0,-0.000529267,-4.96483e-06,0.000264768,-0.00050332,-0.00033986,-0.000291655,-7.70909e-06,4.37434e-05,0.000302732,0.000481139,-2.62001e-05,1.45762e-05
1365,0.00051179,-0.012868,-0.0346356,0.0130484,0.0533633,0.0533633,0.0533633,0.0533633,0.0533633,0.0533633,0.0533633,0.0533633,0.0533633,-0.803363,-0.0737209,0.0128637,0.806841,-0.012868,-0.0346356,0.0130484,0.00782019,-0.00765893,-0.0291359,0.000443071,-0.00277748,0.0027191,0.0533633,0.0335965,0.266814,-0.00197845,-0.121303,0.187687,0.160177,0.490334,-0.441632,0.049122,-0.00571399,-0.0545101,0.621434,0.161652,-0.0269657,-1.12482,0.00782019,-0.00765893,-0.0291359,0.000443071,-0.00277748,0.0027191,0,0,0,0,0,0,0,0,0,-0.000529125,0.000130081,-6.15126e-05,0.0013723,-0.000353212,-3.48611e-05,0.000170823,-0.00049669,0.000413798,-6.1897e-05,-7.61862e-05,-0.000198235
1366,0.00051179,0.0228006,-0.00233802,0.0153489,0.0963172,0.0963172,0.0963172,0.0963172,0.0963172,0.0963172,0.0963172,0.0963172,0.0963172,-0.903683,0.0928601,-0.0820146,0.912136,0.0228006,-0.00233802,0.0153489,-0.00716937,0.00210865,-0.00138719,0.00654353,-0.00062534,-0.00255515,0.0963172,-0.110521,-0.664525,-0.0398999,-0.284595,-0.421175,0.0562704,0.15942,1.0629,-0.0466457,-0.0317242,0.00591203,0.187011,0.318657,0.0388824,-0.36178,-0.00716937,0.00210865,-0.00138719,0.00654353,-0.00062534,-0.00255515,0,0,0,0,0,0,0,0,0,-0.00059437,-0.000448299,-0.000191782,0.000312992,-0.000342513,-0.000186131,-6.03589e-05,1.9864e-05,0.000376306,0.00023584,3.30028e-05,0.000321788
1367,0.00051179,-0.00043771,0.00398344,-0.00119863,0.106272,0.106272,0.106272,0.106272,0.106272,0.106272,0.106272,0.106272,0.106272,-0.893728,-0.136281,-0.668697,1.12449,-0.00043771,0.00398344,-0.00119863,-0.00383977,0.00176258,-0.000164706,-0.00209436,-0.00100858,-0.00203725,0.106272,-0.000663623,0.0220615,-0.00224512,0.0143809,-0.000672574,-0.00219962,0.0127307,-0.0209512,0.00443704,0.00219049,-0.00298963,-0.000703188,-0.0205548,-0.000884932,-0.0108289,-0.00383977,0.00176258,-0.000164706,-0.00209436,-0.00100858,-0.00203725,0,0,0,0,0,0,0,0,0,-0.000384234,-1.66521e-05,7.53247e-05,-0.000321413,-0.000308717,-8.01501e-05,1.75783e-05,-3.42064e-05,0.00034339,0.00029777,-5.77568e-06,-8.74601e-06
1368,0.00051179,0.0104481,0.0202308,0.00550773,0.00714374,0.00714374,0.00714374,0.00714374,0.00714374,0.00714374,0.00714374,0.00714374,0.00714374,-0.757144,0.474566,0.613942,1.08416,0.0104481,0.0202308,0.00550773,0.0272568,0.0149151,-2.24672e-05,-0.00290615,0.00797142,0.0114473,0.00714374,-0.000145957,-0.0131824,0.00014592,-0.0181819,-0.000449368,0.000510983,0.0158517,0.00318368,-0.00865109,0.00437856,-0.000789591,0.000788507,-0.00642751,0.000950132,-0.022148,0.0272568,0.0149151,-2.24672e-05,-0.00290615,0.00797142,0.0114473,0,0,0,0,0,0,0,0,0,-0.000565343,0.000103303,0.000283407,-0.000281661,-0.000372911,-0.000132797,-9.00374e-05,6.94798e-05,0.000339136,0.000286546,2.33848e-06,2.9736e-05
1369,0.00051179,0.00762714,-0.0184379,0.0288815,0.0220927,0.0220927,0.0220927,0.0220927,0.0220927,0.0220927,0.0220927,0.0220927,0.0220927,-0.977907,-0.813647,0.0100907,1.27217,0.00762714,-0.0184379,0.0288815,-0.0142858,-0.0104446,-0.032322,-0.00227962,-0.0112762,0.00251593,0.0220927,0.0541282,0.122931,0.0147586,0.0460876,0.0393364,0.347907,1.31932,-0.169895,0.0105859,0.0732741,0.048363,-0.0377052,-0.100924,-0.00436796,-1.31049,-0.0142858,-0.0104446,-0.032322,-0.00227962,-0.0112762,0.00251593,0,0,0,0,0,0,0,0,0,-0.000542782,0.000145793,-0.00019716,0.00175745,-0.000377709,0.0002403,-1.18876e-05,-9.04018e-05,0.000390664,0.0013984,0.00046127,-6.26794e-05
1370,0.00051179,0.0559535,-0.0740395,0.0342143,0.00225578,0.00225578,0.00225578,0.00225578,0.00225578,0.00225578,0.00225578,0.00225578,0.00225578,-0.747744,0.563661,0.0260376,0.936757,0.0559535,-0.0740395,0.0342143,0.0159763,-0.0129669,0.0798497,0.0140132,0.00863879,-0.000737607,0.00225578,0.877649,6.94422,0.0842318,1.10025,-0.776765,0.786433,-1.99395,-6.22341,0.172868,-0.0634607,0.110941,-1.12182,-0.962748,0.0492825,3.08156,0.0159763,-0.0129669,0.0798497,0.0140132,0.00863879,-0.000737607,0,0,0,0,0,0,0,0,0,-0.000209548,0.00316538,0.000415939,0.0139614,-0.000283921,0.00029671,-0.000368346,0.00108507,0.00025668,-0.00529861,0.000110719,-0.00106003
1371,0.00051179,-0.0194554,0.0125265,-0.00847903,0.113491,0.113491,0.113491,0.113491,0.113491,0.113491,0.113491,0.113491,0.113491,-0.886509,-0.450303,-0.289171,1.03551,-0.0194554,0.0125265,-0.00847903,-0.00311511,-3.66326e-05,0.0107856,-0.00115068,0.0040993,-0.000643514,0.113491,-0.12194,1.1809,0.00986732,-0.168549,0.0541462,-0.119365,0.273592,-1.2156,-0.0153941,-0.116277,0.0147369,0.0421013,0.272299,-0.0770096,-0.307215,-0.00311511,-3.66326e-05,0.0107856,-0.00115068,0.0040993,-0.000643514,0,0,0,0,0,0,0,0,0,-0.000622191,-0.000372292,0.000399975,-0.00105578,-0.00033238,-0.000301668,0.00017026,0.000109405,0.000314184,-3.00112e-05,7.8957e-05,-0.000135281
1372,0.00051179,0.0024696,0.00310663,-0.000529046,0.0612882,0.0612882,0.0612882,0.0612882,0.0612882,0.0612882,0.0612882,0.0612882,0.0612882,-0.938712,-0.783911,-0.912026,1.52561,0.0024696,0.00310663,-0.000529046,-0.00578518,0.00243372,0.0023027,-0.0081554,0.00430935,-0.000656346,0.0612882,0.00140275,-0.0102945,-0.00092452,0.00274005,-0.000191352,0.000934862,-0.00458581,0.00801624,-0.001258,-0.00450696,-7.38334e-05,0.00296572,-0.00133973,-0.0016761,0.00214914,-0.00578518,0.00243372,0.0023027,-0.0081554,0.00430935,-0.000656346,0,0,0,0,0,0,0,0,0,-0.000442274,-3.30259e-06,0.000298017,-0.000453316,-0.000273937,-0.000282925,-2.84575e-05,-0.000100911,0.000284322,0.000485692,0.000143266,6.94732e-06
1373,0.00051179,0.0097055,0.0108062,-0.012888,0.0856146,0.0856146,0.0856146,0.0856146,0.0856146,0.0856146,0.0856146,0.0856146,0.0856146,-0.914385,0.0589283,-0.210907,0.940242,0.0097055,0.0108062,-0.012888,-0.000763975,-0.000320505,-0.000272342,-0.0063402,0.00510967,-0.000318721,0.0856146,-0.0919476,0.0413731,-0.0190158,0.0333349,-0.207176,-0.0370023,-0.314477,0.156097,-0.0425348,0.0155433,-0.0128031,-0.0850084,-0.0596844,0.0102943,0.412374,-0.000763975,-0.000320505,-0.000272342,-0.0063402,0.00510967,-0.000318721,0,0,0,0,0,0,0,0,0,-0.000565581,-0.000311699,-0.000103782,-0.000436831,-0.000331277,-8.95805e-05,-9.2516e-05,-3.47146e-05,0.000334233,6.40842e-05,-4.222e-05,0.000201737
1374,0.00051179,-0.0010196,-0.00938059,0.0302519,0.0414968,0.0414968,0.0414968,0.0414968,0.0414968,0.0414968,0.0414968,0.0414968,0.0414968,-0.791497,0.454955,0.279189,0.954671,-0.0010196,-0.00938059,0.0302519,0.00136093,-0.00700168,-0.0193345,0.000248615,-0.0243567,0.00923193,0.0414968,0.00999166,-0.592271,0.00171942,-0.0881226,-0.0171883,-0.0300329,1.106,0.610479,-0.0300421,-0.142526,-0.0142121,0.0962578,0.240029,0.0794817,-1.23251,0.00136093,-0.00700168,-0.0193345,0.000248615,-0.0243567,0.00923193,0,0,0,0,0,0,0,0,0,-0.000415646,-2.43211e-05,0.0004521,-0.00123141,-0.000348622,-0.000504923,-0.000230051,-0.000301512,0.000288107,0.000737734,-8.41765e-05,0.000362484
1375,0.00051179,-0.0592728,-0.0396948,-0.0018568,0.012301,0.012301,0.012301,0.012301,0.012301,0.012301,0.012301,0.012301,0.012301,-0.737699,-0.689462,-0.086474,1.01343,-0.0592728,-0.0396948,-0.0018568,0.253125,0.0829195,0.207922,-0.124548,0.0270406,-0.0696705,0.012301,-3.31265,-41.4121,-0.070077,-0.988012,3.10357,-0.345244,-10.7698,38.3678,-0.496728,-1.84263,-0.00151377,0.373458,2.87034,-0.408093,10.3982,0.253125,0.0829195,0.207922,-0.124548,0.0270406,-0.0696705,0,0,0,0,0,0,0,0,0,-0.00171835,-0.0104993,0.000108215,0.00472916,-0.00046205,2.02105e-05,0.00169197,0.0010221,0.000168063,-0.00610239,-0.00076683,0.00240953
1376,0.00051179,-0.00113453,0.000275271,-0.000431639,0.0995662,0.0995662,0.0995662,0.0995662,0.0995662,0.0995662,0.0995662,0.0995662,0.0995662,-0.849566,-0.644037,0.795231,1.33001,-0.00113453,0.000275271,-0.000431639,0.00137848,-0.0013835,0.000432737,0.00056669,-0.000800822,0.00382623,0.0995662,0.000330105,-0.00114522,0.000344343,-0.00231422,3.33619e-05,0.000313222,0.00171516,0.00224639,-0.00041868,-0.000750671,-0.000888329,0.000795329,0.00278962,-0.000737946,-0.00207885,0.00137848,-0.0013835,0.000432737,0.00056669,-0.000800822,0.00382623,0,0,0,0,0,0,0,0,0,-0.000556789,2.83729e-06,-0.000315881,-0.000343091,-0.000328684,0.000305489,-4.96559e-06,-1.26095e-05,0.000340253,0.00035055,-4.28197e-06,9.73581e-06
1377,0.00051179,-0.106597,0.0300738,-0.0464129,0.041425,0.041425,0.041425,0.041425,0.041425,0.041425,0.041425,0.041425,0.041425,-0.791425,0.686571,-0.196055,1.06591,-0.106597,0.0300738,-0.0464129,-0.0221701,0.0138398,-0.0586851,-0.025979,-0.0315458,0.00106144,0.041425,-0.226372,6.40849,0.0249333,-0.290469,0.291486,-0.275229,3.70501,-6.59338,0.043881,0.0435204,0.0525955,0.539179,0.216875,-0.334884,-4.19777,-0.0221701,0.0138398,-0.0586851,-0.025979,-0.0315458,0.00106144,0,0,0,0,0,0,0,0,0,-0.000988968,-0.000591405,-0.000278317,-0.00401006,-0.000160182,0.000666048,0.000740813,-1.26417e-05,0.000257984,0.000670913,0.000223138,-0.00101781
1378,0.00051179,-0.00883311,0.00100809,-0.00564612,0.0200786,0.0200786,0.0200786,0.0200786,0.0200786,0.0200786,0.0200786,0.0200786,0.0200786,-0.979921,-0.277364,-0.85272,1.32827,-0.00883311,0.00100809,-0.00564612,-0.00335699,0.00276951,0.00306668,-0.0127112,-0.00113914,0.0013152,0.0200786,-0.00104855,0.0216841,-0.00159656,0.0096584,-0.000413677,0.000788964,0.00774868,-0.0124373,-0.00208429,0.00019059,-0.000758423,-0.00116637,-0.0108571,-0.00225407,-0.000936189,-0.00335699,0.00276951,0.00306668,-0.0127112,-0.00113914,0.0013152,0,0,0,0,0,0,0,0,0,-0.000341639,1.21067e-06,0.000152027,-0.000307182,-0.000289882,-0.000140297,-5.07392e-05,-4.31666e-05,0.000313297,0.000345738,2.4191e-05,1.8544e-05
1379,0.00051179,0.0240394,0.0141231,-0.0356469,0.105336,0.105336,0.105336,0.105336,0.105336,0.105336,0.105336,0.105336,0.105336,-0.855336,-0.764663,-0.00520198,1.14732,0.0240394,0.0141231,-0.0356469,0.00703845,-0.00629543,0.0119224,0.000234587,-0.00248311,-0.00851157,0.105336,-0.0745536,-0.904449,-0.000858448,-0.0483851,0.0191613,0.639965,4.63165,0.861248,-0.0029905,-0.00936108,0.0860144,-0.423055,0.0436231,0.0191254,-4.17294,0.00703845,-0.00629543,0.0119224,0.000234587,-0.00248311,-0.00851157,0,0,0,0,0,0,0,0,0,-0.0005937,-0.000268741,-2.69405e-05,0.00562812,-0.000371987,-4.45983e-05,5.50557e-05,0.00117638,0.000547178,0.000890754,-0.000341066,0.000121905
1380,0.00051179,-0.0219791,-0.00116953,-0.0292342,0.0676942,0.0676942,0.0676942,0.0676942,0.0676942,0.0676942,0.0676942,0.0676942,0.0676942,-0.932306,0.730302,-0.193916,1.20006,-0.0219791,-0.00116953,-0.0292342,-0.00444376,-0.000189483,0.0272929,-0.00145934,-0.0262559,-0.00505449,0.0676942,-0.378324,-1.15968,0.0404742,0.0891944,0.377242,-0.0918185,-1.32501,0.804421,-0.0353892,0.169372,0.00524921,0.14579,-0.257397,0.0301561,1.20846,-0.00444376,-0.000189483,0.0272929,-0.00145934,-0.0262559,-0.00505449,0,0,0,0,0,0,0,0,0,-0.000807784,-0.00145863,-0.000443156,-0.000388974,-0.000241721,0.000846003,0.000270967,-5.36533e-05,0.000294328,-0.000256282,-0.000156414,0.000580718
1381,0.00051179,0.00301291,0.00625987,-0.0114921,0.0490997,0.0490997,0.0490997,0.0490997,0.0490997,0.0490997,0.0490997,0.0490997,0.0490997,-0.9509,0.562119,-0.579076,1.2472,0.00301291,0.00625987,-0.0114921,-0.00215637,-0.00118006,-0.00435124,-0.00851893,-0.00673257,0.00641106,0.0490997,-0.00297479,0.0549666,-0.00254183,0.00434543,0.00128681,-0.00574148,0.0391957,-0.0592664,0.00790091,-0.00299922,-0.00124329,0.0157774,-0.00760607,-0.0042679,-0.043481,-0.00215637,-0.00118006,-0.00435124,-0.00851893,-0.00673257,0.00641106,0,0,0,0,0,0,0,0,0,-0.000507779,-2.1495e-05,-0.000360639,-0.000397738,-0.000305468,0.00032342,1.0707e-06,4.19722e-05,0.00029026,0.000296811,-0.000121731,1.48766e-05
1382,0.00051179,0.00806047,0.0354408,0.00946632,0.00752791,0.00752791,0.00752791,0.00752791,0.00752791,0.00752791,0.00752791,0.00752791,0.00752791,-0.757528,-0.718975,0.472991,1.14651,0.00806047,0.0354408,0.00946632,0.000480133,-0.00908739,-0.00440014,-0.0212613,-0.0253701,-0.012797,0.00752791,0.00100978,-0.0117781,-7.68825e-05,-0.00474237,0.0036577,-0.000180952,0.0491261,5.99372e-05,-0.00973667,-0.0383749,-0.000568545,0.000731352,0.00767647,0.00696517,-0.0593238,0.000480133,-0.00908739,-0.00440014,-0.0212613,-0.0253701,-0.012797,0,0,0,0,0,0,0,0,0,-0.000409849,4.82264e-05,-0.000522734,-0.000409937,-0.000266904,0.000431091,-0.000114213,-0.000166828,0.000369482,0.000364126,-9.25588e-05,1.16176e-05
1383,0.00051179,0.0122992,0.0409182,0.0145388,0.0157869,0.0157869,0.0157869,0.0157869,0.0157869,0.0157869,0.0157869,0.0157869,0.0157869,-0.765787,-0.834029,0.510062,1.24185,0.0122992,0.0409182,0.0145388,0.000307124,-0.00418522,0.000341855,-0.0103476,-0.0245931,-0.0155726,0.0157869,0.00159992,-0.0174918,-0.000513665,-0.00692919,0.00444151,-0.000678945,0.0104422,0.000751046,-0.00461705,-0.0332281,-0.000274703,-0.00815603,-0.000760853,0.0033189,-0.016825,0.000307124,-0.00418522,0.000341855,-0.0103476,-0.0245931,-0.0155726,0,0,0,0,0,0,0,0,0,-0.00036373,3.87406e-05,-0.000562013,-0.000483525,-0.000268275,0.000515024,-4.56179e-05,-0.000181911,0.000375979,0.000480154,-6.6767e-05,-3.20633e-05
1384,0.00051179,0.00247343,-0.00352011,0.0039604,0.0564856,0.0564856,0.0564856,0.0564856,0.0564856,0.0564856,0.0564856,0.0564856,0.0564856,-0.861245,-0.261803,0.943514,1.30403,0.00247343,-0.00352011,0.0039604,-0.00133568,-0.00065717,-0.00055618,0.00261855,-0.00130989,0.00621384,0.0564856,0.00114603,-0.00293982,-0.000283889,-0.000842475,7.258e-05,0.000455245,0.00191186,0.000393814,-0.000653746,0.00065388,-0.000112364,0.000408947,0.0037087,-0.00107181,-0.0062812,-0.00133568,-0.00065717,-0.00055618,0.00261855,-0.00130989,0.00621384,0,0,0,0,0,0,0,0,0,-0.000686161,-8.92962e-06,-0.000132705,-0.000256932,-0.000333363,0.000123295,1.84268e-06,1.0983e-05,0.000333101,0.000255922,-2.52055e-05,1.77288e-05
1385,0.00051179,0.0129018,0.00229042,-0.000859976,0.0834834,0.0834834,0.0834834,0.0834834,0.0834834,0.0834834,0.0834834,0.0834834,0.0834834,-0.916517,-0.277212,0.237389,0.98651,0.0129018,0.00229042,-0.000859976,-0.000790957,-0.00354037,0.00778855,-0.00353452,-0.00436231,0.0039456,0.0834834,0.145137,-0.339042,-0.0189192,0.00880238,0.0809217,-0.0774546,-0.40603,0.245218,0.0707661,0.0470418,0.0280342,-0.11459,-0.0581346,0.00873415,0.521481,-0.000790957,-0.00354037,0.00778855,-0.00353452,-0.00436231,0.0039456,0,0,0,0,0,0,0,0,0,-0.000485957,0.00046297,-0.000277379,-0.000490034,-0.000397706,5.27834e-05,7.74001e-05,0.000229478,0.000312254,-0.000206626,7.24086e-06,-0.000195359
1386,0.00051179,0.013127,-0.0130301,0.0340513,0.0595705,0.0595705,0.0595705,0.0595705,0.0595705,0.0595705,0.0595705,0.0595705,0.0595705,-0.94043,-0.235712,-0.068093,0.971908,0.013127,-0.0130301,0.0340513,-0.000873819,-0.0139322,0.000353431,0.00594293,-0.000369128,0.000989407,0.0595705,-0.146578,-1.04932,0.060348,0.37996,-0.113401,0.0771732,0.366975,1.14959,-0.0403983,0.0761634,-0.0570946,0.118114,-0.443093,0.0375301,-0.519141,-0.000873819,-0.0139322,0.000353431,0.00594293,-0.000369128,0.000989407,0,0,0,0,0,0,0,0,0,-0.000600226,-0.000571812,0.00024549,0.000507334,-0.000334138,0.000218669,-6.82932e-06,-0.00033076,0.000401616,0.000267932,-0.000243878,0.000358045
1387,0.00051179,-0.0218179,0.00850105,-0.00547345,0.0361147,0.0361147,0.0361147,0.0361147,0.0361147,0.0361147,0.0361147,0.0361147,0.0361147,-0.963885,-0.602363,-0.369289,1.19511,-0.0218179,0.00850105,-0.00547345,-0.00558958,-0.00153757,0.00523428,-0.0119202,0.00238393,0.0155885,0.0361147,-0.0821263,0.46964,-0.00367408,0.0354605,0.0941652,-0.0654459,0.0478292,-0.541987,-0.00791182,-0.0845321,0.00102592,0.0874498,0.0405705,-0.0341711,-0.129806,-0.00558958,-0.00153757,0.00523428,-0.0119202,0.00238393,0.0155885,0,0,0,0,0,0,0,0,0,-0.000601538,-0.000293044,0.000474741,-0.000464483,-0.000317806,-0.000526857,4.63752e-05,-8.40623e-05,0.000314504,-0.000137633,0.000118161,5.26221e-05
1388,0.00051179,0.00112319,0.007043,0.0190454,0.0998817,0.0998817,0.0998817,0.0998817,0.0998817,0.0998817,0.0998817,0.0998817,0.0998817,-0.849882,-0.246698,0.255602,0.921136,0.00112319,0.007043,0.0190454,-0.00184313,-0.0127593,6.84988e-05,-0.00202487,0.0104808,-0.000967665,0.0998817,0.0609871,-0.875769,-0.00824153,0.082861,0.0461759,-0.065128,0.312625,0.82847,0.0488318,0.191204,0.0281678,-0.128946,-0.281108,0.0482407,-0.202724,-0.00184313,-0.0127593,6.84988e-05,-0.00202487,0.0104808,-0.000967665,0,0,0,0,0,0,0,0,0,-0.000487633,0.000118923,-0.000311945,-0.000737588,-0.000385636,0.000101937,5.72379e-05,0.000305728,0.000308037,8.6993e-05,8.07582e-05,5.95684e-05
1389,0.00051179,8.21203e-05,0.0023029,4.28949e-05,0.0828477,0.0828477,0.0828477,0.0828477,0.0828477,0.0828477,0.0828477,0.0828477,0.0828477,-0.832848,-0.441533,0.61011,1.12286,8.21203e-05,0.0023029,4.28949e-05,-0.00209224,0.0016995,0.000980943,-0.00473613,-0.00195472,0.0065127,0.0828477,0.000874773,-0.0138379,0.000224359,0.00226278,-0.000851336,-0.000700437,0.019313,0.0146071,-0.00248374,-0.00423044,-0.00086916,0.00116405,-0.000335243,0.00118972,-0.0205199,-0.00209224,0.0016995,0.000980943,-0.00473613,-0.00195472,0.0065127,0,0,0,0,0,0,0,0,0,-0.00056576,-5.23934e-06,-0.000286042,-0.000246212,-0.00032487,0.00030528,-3.52514e-05,-1.33795e-06,0.000337578,0.000249017,-2.69009e-05,3.93601e-05
1390,0.00051179,-0.0557352,0.00986296,0.00993583,0.107971,0.107971,0.107971,0.107971,0.107971,0.107971,0.107971,0.107971,0.107971,-0.857971,0.149205,0.0923913,0.875736,-0.0557352,0.00986296,0.00993583,0.0123441,-0.00405371,-0.00274389,0.00783906,0.0147021,0.00319555,0.107971,0.225998,1.44491,0.0792228,0.707882,0.444842,0.0542609,-0.194736,-1.83402,0.120673,0.0848156,0.00213496,0.0808904,-0.802561,-0.0841616,0.10391,0.0123441,-0.00405371,-0.00274389,0.00783906,0.0147021,0.00319555,0,0,0,0,0,0,0,0,0,-0.000457712,0.00086184,0.000411623,0.000545468,-0.00029012,0.000340068,0.000312691,0.000165531,0.000364557,-3.02979e-05,2.84021e-06,-0.000734702
1391,0.00051179,0.011751,-0.00767285,0.000687718,0.0811317,0.0811317,0.0811317,0.0811317,0.0811317,0.0811317,0.0811317,0.0811317,0.0811317,-0.831132,0.379278,0.323094,0.969031,0.011751,-0.00767285,0.000687718,-0.000704583,-0.00214212,-0.00889827,0.00292453,-0.0171402,0.0120434,0.0811317,0.0150364,-0.448846,0.00387073,-0.0962976,-0.00549798,-0.0305506,0.477166,0.442593,-0.00619964,-0.1325,-0.0157981,0.00605871,0.23647,0.0429618,-0.483913,-0.000704583,-0.00214212,-0.00889827,0.00292453,-0.0171402,0.0120434,0,0,0,0,0,0,0,0,0,-0.000484727,-4.56618e-06,0.000333688,-0.000674785,-0.000331962,-0.000316402,-9.2601e-05,-0.000230963,0.000289708,0.000280297,-9.84198e-05,0.000198801
1392,0.00051179,0.00297815,0.00168326,-0.0593597,0.00974335,0.00974335,0.00974335,0.00974335,0.00974335,0.00974335,0.00974335,0.00974335,0.00974335,-0.990257,0.453744,-0.35357,1.14521,0.00297815,0.00168326,-0.0593597,-0.000260639,0.00346306,0.0112664,-0.0076602,0.00503239,0.0117005,0.00974335,-0.110991,0.48214,-0.00128698,0.0285903,0.0405695,-0.0740543,0.0374833,-0.525687,-0.0153672,0.0647467,-0.00896621,0.0154334,-0.0950203,-0.0256565,0.00644298,-0.000260639,0.00346306,0.0112664,-0.0076602,0.00503239,0.0117005,0,0,0,0,0,0,0,0,0,-0.000545748,-0.000385219,-0.00030703,-0.000368384,-0.000320965,0.000328791,5.59037e-05,1.661e-05,0.000307359,-0.000259495,-5.59483e-05,0.000101261
1393,0.00051179,-0.00173682,-0.00252235,0.0055758,0.0942302,0.0942302,0.0942302,0.0942302,0.0942302,0.0942302,0.0942302,0.0942302,0.0942302,-0.90577,-0.822577,0.391411,1.28462,-0.00173682,-0.00252235,0.0055758,0.0021046,-0.00246572,0.00205814,0.00395418,-0.00171356,0.00227988,0.0942302,0.0117293,-0.125832,0.0107178,-0.0757588,-0.00414602,-0.00786106,0.107736,0.131715,-0.0053554,-0.0519216,-0.0122251,0.00670279,0.130203,0.0113035,-0.120015,0.0021046,-0.00246572,0.00205814,0.00395418,-0.00171356,0.00227988,0,0,0,0,0,0,0,0,0,-0.000318214,3.91508e-05,-0.00066545,-0.000457501,-0.000332111,0.00074797,-3.70246e-05,-0.000172647,0.000306733,0.000399472,3.32606e-05,3.78984e-05
1394,0.00051179,0.00227616,-0.0030975,-0.00153633,0.0844846,0.0844846,0.0844846,0.0844846,0.0844846,0.0844846,0.0844846,0.0844846,0.0844846,-0.834485,0.0842788,0.586801,1.02362,0.00227616,-0.0030975,-0.00153633,-0.00256656,-0.00145264,-0.000257334,-0.000192928,-0.000137995,0.00454492,0.0844846,0.00108899,-0.0179976,9.72226e-05,0.00838159,-0.000106673,-0.000981677,0.0223545,0.0158281,-0.00432988,-0.00116944,-0.000760252,-0.000966724,-0.00411466,0.00253277,-0.0198515,-0.00256656,-0.00145264,-0.000257334,-0.000192928,-0.000137995,0.00454492,0,0,0,0,0,0,0,0,0,-0.000624605,-8.63091e-06,5.6493e-05,-0.000212344,-0.000341082,-7.00471e-05,-2.38571e-05,1.06423e-05,0.000320621,0.000199954,-1.96247e-05,3.41454e-05
1395,0.00051179,-0.0112948,-0.0159348,0.00622027,0.110886,0.110886,0.110886,0.110886,0.110886,0.110886,0.110886,0.110886,0.110886,-0.889114,0.103955,-0.265094,0.933598,-0.0112948,-0.0159348,0.00622027,-0.00494696,-0.0079065,-0.000781924,0.00486542,-0.00645432,-0.000747756,0.110886,-0.0509217,0.309616,-0.00764971,0.104654,-0.064563,-0.0442976,-0.134485,-0.233758,-0.0397222,0.0537576,-0.0139021,-0.0699997,-0.142477,-0.0196323,0.198265,-0.00494696,-0.0079065,-0.000781924,0.00486542,-0.00645432,-0.000747756,0,0,0,0,0,0,0,0,0,-0.000548542,-0.000151145,-0.000150087,-0.000589706,-0.000331456,-5.47466e-06,-4.60854e-05,-0.000132477,0.000327669,0.00013891,-7.10873e-05,2.62985e-05
1396,0.00051179,0.050869,-0.0263853,-0.101178,0.00451777,0.00451777,0.00451777,0.00451777,0.00451777,0.00451777,0.00451777,0.00451777,0.00451777,-0.833497,0.995482,-0.0842188,1.30107,0.050869,-0.0263853,-0.101178,-0.0757366,-0.0864156,-0.07415,0.0200028,-0.0166335,0.16299,0.00451777,-0.709618,-7.78172,0.0196194,0.183646,-2.52377,0.659728,1.20581,10.2546,-0.00252898,0.00864901,-0.000754378,0.616936,-0.165909,0.561969,-1.72157,-0.0757366,-0.0864156,-0.07415,0.0200028,-0.0166335,0.16299,0,0,0,0,0,0,0,0,0,-0.00113384,-0.00387725,-0.00274167,0.00301262,-6.80629e-05,0.00207371,0.000136895,-0.00152385,0.000647984,0.00284316,0.00134997,0.00367432
1397,0.00051179,0.014736,0.0005044,-0.00280415,0.0126542,0.0126542,0.0126542,0.0126542,0.0126542,0.0126542,0.0126542,0.0126542,0.0126542,-0.762654,-0.662425,0.850011,1.32021,0.014736,0.0005044,-0.00280415,0.00157224,-0.00308794,-0.00592908,-0.00521243,-0.00710051,0.00667786,0.0126542,0.000316694,-0.0144376,-8.67769e-05,-0.00260307,-0.000275606,0.000456113,0.00278391,-2.27836e-05,-0.000604915,-0.00100656,-0.000669583,0.000139821,0.00310523,-0.000779286,-0.000119578,0.00157224,-0.00308794,-0.00592908,-0.00521243,-0.00710051,0.00667786,0,0,0,0,0,0,0,0,0,-0.000570036,7.17141e-06,-0.000296316,-0.000361902,-0.000303442,0.000264568,-3.136e-05,-4.27161e-05,0.000371546,0.000307172,-3.49848e-05,2.72196e-05
1398,0.00051179,-0.00412846,-0.00135251,-0.00061579,0.102064,0.102064,0.102064,0.102064,0.102064,0.102064,0.102064,0.102064,0.102064,-0.897936,-0.708823,0.649126,1.31533,-0.00412846,-0.00135251,-0.00061579,0.00259895,-0.000938848,0.000167806,0.00331868,0.00472687,0.00415941,0.102064,0.00158466,-0.0152064,0.000697024,-0.00528564,6.73562e-05,-0.0016694,0.0278326,0.0192675,0.000576658,-0.000360761,-0.001687,0.000431914,0.00699892,0.00106503,-0.0276487,0.00259895,-0.000938848,0.000167806,0.00331868,0.00472687,0.00415941,0,0,0,0,0,0,0,0,0,-0.00048279,5.568e-06,-0.000406536,-0.000361624,-0.000345195,0.000404118,4.12662e-06,1.65255e-06,0.000321299,0.000346608,2.87462e-05,1.07721e-05
1399,0.00051179,0.0022941,-0.00254479,-0.00491265,0.0400361,0.0400361,0.0400361,0.0400361,0.0400361,0.0400361,0.0400361,0.0400361,0.0400361,-0.941435,0.944793,-0.959964,1.64331,0.0022941,-0.00254479,-0.00491265,-0.00176953,0.000274971,0.000749961,-0.0029559,-0.00475216,0.00368232,0.0400361,0.00358804,-0.0213526,-0.0003139,-0.000522382,0.00318562,0.000211786,0.00130506,0.0158728,0.000225125,0.0024566,7.9697e-05,0.000105495,0.000610573,-0.00140119,0.00350209,-0.00176953,0.000274971,0.000749961,-0.0029559,-0.00475216,0.00368232,0,0,0,0,0,0,0,0,0,-0.000448175,7.51308e-06,-0.000270837,-0.000588413,-0.000336224,0.000270448,-1.52333e-05,9.54899e-05,0.000231951,0.00059803,-0.000142215,9.8262e-06
1400,0.00051179,0.00819837,-0.0196304,0.000400685,0.0128139,0.0128139,0.0128139,0.0128139,0.0128139,0.0128139,0.0128139,0.0128139,0.0128139,-0.762814,-0.901351,-0.729348,1.3879,0.00819837,-0.0196304,0.000400685,-0.00336785,-0.00390631,-0.0002525,-0.00396858,-0.00675543,0.00680084,0.0128139,0.00106885,-0.00756779,-8.02204e-05,0.0227524,-0.00197503,0.000314541,0.00400992,0.00134446,0.00175957,0.00782806,-0.00060054,-0.00730864,-0.01095,0.00253792,0.00289803,-0.00336785,-0.00390631,-0.0002525,-0.00396858,-0.00675543,0.00680084,0,0,0,0,0,0,0,0,0,-0.000570782,-1.7069e-05,0.000361495,-0.000549388,-0.000352556,-0.00040136,-1.6619e-05,-0.0001944,0.000362165,0.000550008,0.000120841,4.11199e-05
1401,0.00051179,0.00755232,0.00474869,0.00529768,0.0292211,0.0292211,0.0292211,0.0292211,0.0292211,0.0292211,0.0292211,0.0292211,0.0292211,-0.970779,0.150867,0.723979,1.22038,0.00755232,0.00474869,0.00529768,-0.000867636,0.000457772,-0.000171648,0.0104993,-0.00124212,0.00105379,0.0292211,0.00147034,-0.0230015,0.000355728,0.00403304,0.00103544,-0.0027787,0.0326321,0.0144137,0.00337277,-0.00145479,-0.000808575,-0.00235111,-0.00732695,0.00391121,-0.0355787,-0.000867636,0.000457772,-0.000171648,0.0104993,-0.00124212,0.00105379,0,0,0,0,0,0,0,0,0,-0.000646859,-1.9417e-05,7.50966e-05,-0.000228976,-0.000330681,-6.69616e-05,4.69299e-05,5.57964e-06,0.000294961,0.000199472,-2.60866e-05,2.39448e-06
1402,0.00051179,0.0149888,0.00388406,-0.0108235,0.0955374,0.0955374,0.0955374,0.0955374,0.0955374,0.0955374,0.0955374,0.0955374,0.0955374,-0.904463,-0.03872,0.449394,1.0107,0.0149888,0.00388406,-0.0108235,-0.00134401,0.00124811,0.000724634,0.00441199,-0.00185947,0.00296688,0.0955374,0.00697662,-0.0894086,-0.000432007,-0.0108588,0.00286685,-0.010045,0.0781506,0.0715529,0.0172655,-0.000735075,0.00221195,-0.0111188,0.00770987,0.0120039,-0.0562083,-0.00134401,0.00124811,0.000724634,0.00441199,-0.00185947,0.00296688,0,0,0,0,0,0,0,0,0,-0.000594288,-2.06226e-05,-2.35231e-05,-0.000264016,-0.000344688,3.16841e-05,5.96017e-05,3.60405e-05,0.000307329,0.000170812,-3.25158e-05,2.60684e-05
1403,0.00051179,0.0152763,0.00694914,0.0271346,0.0854663,0.0854663,0.0854663,0.0854663,0.0854663,0.0854663,0.0854663,0.0854663,0.0854663,-0.914534,-0.0471986,-0.083474,0.919547,0.0152763,0.00694914,0.0271346,-0.00706777,-0.00608253,0.00108483,0.00790394,-0.00258984,-0.00318633,0.0854663,-0.0889932,-0.525945,0.0199019,0.105466,-0.403502,0.0523977,0.124557,0.914171,-0.0446487,0.0477472,-0.0210451,0.188157,-0.160162,0.0322674,-0.339849,-0.00706777,-0.00608253,0.00108483,0.00790394,-0.00258984,-0.00318633,0,0,0,0,0,0,0,0,0,-0.000583164,-0.000360623,7.44074e-05,0.000247874,-0.000332797,6.37861e-05,-6.40415e-05,-0.000169194,0.000375107,0.000286951,-6.71559e-05,0.000265088
1404,0.00051179,-0.0122606,-0.0146695,-0.00562365,0.0307516,0.0307516,0.0307516,0.0307516,0.0307516,0.0307516,0.0307516,0.0307516,0.0307516,-0.969248,0.740289,-0.398811,1.28317,-0.0122606,-0.0146695,-0.00562365,-0.00563657,-0.00219083,0.00279584,-0.00746581,-0.0200778,0.0119233,0.0307516,-0.0404008,0.310746,0.00907404,-0.0481106,0.00644571,-0.0315947,0.0826546,-0.304931,0.00299819,0.0381049,0.00722621,0.0593766,0.0246752,-0.0208987,-0.136408,-0.00563657,-0.00219083,0.00279584,-0.00746581,-0.0200778,0.0119233,0,0,0,0,0,0,0,0,0,-0.00067202,-0.000161556,-0.000629023,-0.000503027,-0.000298226,0.000697855,4.62931e-05,0.000128952,0.000256352,0.000215038,-0.000257468,2.37542e-05
1405,0.00051179,0.000634447,-0.00514365,0.00499951,0.0458911,0.0458911,0.0458911,0.0458911,0.0458911,0.0458911,0.0458911,0.0458911,0.0458911,-0.954109,0.647944,-0.921643,1.47634,0.000634447,-0.00514365,0.00499951,-0.000942909,-0.000674263,0.0027024,-0.00683004,-0.00595107,0.00180692,0.0458911,0.00141545,-0.00767528,-0.000824355,0.00268836,-0.000101322,0.00113091,-0.00561765,0.00714215,-0.000942232,0.00199213,0.000168965,4.67153e-05,0.000463159,-0.00178416,0.000571425,-0.000942909,-0.000674263,0.0027024,-0.00683004,-0.00595107,0.00180692,0,0,0,0,0,0,0,0,0,-0.000389613,1.07592e-05,-0.000245287,-0.000436822,-0.000329966,0.000230301,-3.04648e-05,8.37645e-05,0.00027211,0.000475155,-0.000141586,8.51028e-06
1406,0.00051179,-0.00166033,0.000486567,-0.000433426,0.104588,0.104588,0.104588,0.104588,0.104588,0.104588,0.104588,0.104588,0.104588,-0.854588,0.179874,0.530053,1.02158,-0.00166033,0.000486567,-0.000433426,-0.00291452,-0.000222792,0.000242548,0.00194443,-0.0028419,0.00574845,0.104588,0.00231947,-0.0379275,-0.000419609,0.0130334,-0.000997356,-0.00328931,0.0459529,0.0405852,-0.00157564,-0.00841565,-0.000419737,-0.00223591,-0.00510436,0.00539037,-0.0432835,-0.00291452,-0.000222792,0.000242548,0.00194443,-0.0028419,0.00574845,0,0,0,0,0,0,0,0,0,-0.000603147,-1.55667e-05,0.000119104,-0.000240474,-0.000340873,-0.000125528,-1.07475e-05,-9.67282e-06,0.000312358,0.000210006,-2.29435e-05,4.31027e-05
1407,0.00051179,0.00647855,-0.0233148,-0.00406885,0.0468295,0.0468295,0.0468295,0.0468295,0.0468295,0.0468295,0.0468295,0.0468295,0.0468295,-0.796829,-0.554019,0.24946,1.00205,0.00647855,-0.0233148,-0.00406885,0.00663663,0.0085843,-0.0388264,0.00174241,0.0138038,-0.00121188,0.0468295,0.0368698,-1.7269,0.00563515,0.0371329,-0.0593883,-0.0762668,2.25493,1.77981,-0.0522612,0.126367,0.00399143,0.243726,-0.140185,0.147404,-2.49459,0.00663663,0.0085843,-0.0388264,0.00174241,0.0138038,-0.00121188,0,0,0,0,0,0,0,0,0,-0.000326969,5.69394e-05,-0.000502537,-0.00193272,-0.000314588,0.000644732,-0.000413186,0.000171355,0.000293598,0.000781785,6.59733e-06,0.00057037
1408,0.00051179,0.112199,-0.0826306,-0.0287966,0.0411724,0.0411724,0.0411724,0.0411724,0.0411724,0.0411724,0.0411724,0.0411724,0.0411724,-0.66718,-0.152913,-0.0588276,0.687002,0.112199,-0.0826306,-0.0287966,0.00328487,-0.0363948,0.0236997,0.0266386,-0.0135046,-0.0212582,0.0411724,-0.448924,1.12502,0.366165,1.57728,-2.66394,-0.0505412,-1.4151,1.42672,-0.508336,0.925946,-0.0856354,0.695084,-2.4206,-0.080772,0.748808,0.00328487,-0.0363948,0.0236997,0.0266386,-0.0135046,-0.0212582,0,0,0,0,0,0,0,0,0,-0.000802867,-0.00104047,0.00186001,0.00409248,-0.000162328,0.00143769,-0.00122076,-0.00290405,0.000184804,-0.00436089,0.00191265,0.00067758
1409,0.00051179,-0.0233928,-0.0058438,-0.00616837,0.0481023,0.0481023,0.0481023,0.0481023,0.0481023,0.0481023,0.0481023,0.0481023,0.0481023,-0.951898,-0.592192,-0.180268,1.13547,-0.0233928,-0.0058438,-0.00616837,0.00787067,-0.0010043,0.0339011,-0.0195975,-0.00235358,-0.00198069,0.0481023,-0.442089,-1.67982,-0.0120943,0.259959,0.476285,-0.116158,-1.09754,1.22693,-0.0602839,-0.169927,0.00396897,0.0572806,-0.0841883,0.0267646,1.04643,0.00787067,-0.0010043,0.0339011,-0.0195975,-0.00235358,-0.00198069,0,0,0,0,0,0,0,0,0,-0.000711985,-0.0016065,0.000398377,-0.00031767,-0.000333155,-0.000529363,0.000165188,-9.46456e-05,0.000361405,-0.000504904,0.000110799,0.000688515
1410,0.00051179,0.0800719,0.0126737,-0.00648499,0.055373,0.055373,0.055373,0.055373,0.055373,0.055373,0.055373,0.055373,0.055373,-0.805373,-0.891253,0.131502,1.20841,0.0800719,0.0126737,-0.00648499,-0.0506506,0.0396926,0.025229,0.0286776,-0.0569995,0.0193185,0.055373,0.875698,5.95798,0.182056,0.983077,0.515374,-0.124707,-6.92419,-6.55343,0.0193111,0.243492,-0.0906104,-0.0703781,-1.23924,-0.255292,7.00106,-0.0506506,0.0396926,0.025229,0.0286776,-0.0569995,0.0193185,0,0,0,0,0,0,0,0,0,5.32046e-05,0.00339016,9.80041e-05,-0.00125781,-0.000104332,0.00211949,-0.000495129,-0.000219815,0.000448838,0.000263029,-0.00125628,-0.00191494
1411,0.00051179,-0.0151274,0.010726,-0.0347953,0.0782657,0.0782657,0.0782657,0.0782657,0.0782657,0.0782657,0.0782657,0.0782657,0.0782657,-0.671734,-0.159461,0.0187729,0.690657,-0.0151274,0.010726,-0.0347953,0.0126469,-0.013094,0.0386898,0.0194972,-0.000408188,-0.00128426,0.0782657,0.124888,-0.15144,-0.0991643,-0.6202,0.705322,0.00478044,-2.79674,-0.538754,0.151044,-0.11988,-0.166058,1.21143,0.729354,0.0257274,1.6201,0.0126469,-0.013094,0.0386898,0.0194972,-0.000408188,-0.00128426,0,0,0,0,0,0,0,0,0,-0.000464059,0.000303998,-0.000558804,0.00458533,-0.000422115,-0.000563779,0.000469029,-0.00341888,0.000208661,-0.00415063,0.00175422,-0.00026146
1412,0.00051179,0.0040563,-0.0188251,0.00305158,0.0397556,0.0397556,0.0397556,0.0397556,0.0397556,0.0397556,0.0397556,0.0397556,0.0397556,-0.789756,0.00347623,-0.00989883,0.789825,0.0040563,-0.0188251,0.00305158,0.00987193,-0.00380706,-0.0272138,0.000827963,-0.000610865,0.0030787,0.0397556,-0.0290487,-0.109752,0.00360901,-0.0750035,-0.182911,0.153622,0.189389,0.288606,-0.00319277,0.00376564,-0.00506095,0.721405,0.090063,-0.00300735,-0.913846,0.00987193,-0.00380706,-0.0272138,0.000827963,-0.000610865,0.0030787,0,0,0,0,0,0,0,0,0,-0.000560515,-7.11106e-05,-1.34968e-05,0.00135785,-0.000339473,1.15163e-05,1.29493e-05,-6.4038e-06,0.000409894,-9.37681e-05,-5.03143e-05,2.51301e-05
1413,0.00051179,-0.0188051,0.00200819,-0.0208331,0.00931158,0.00931158,0.00931158,0.00931158,0.00931158,0.00931158,0.00931158,0.00931158,0.00931158,-0.990688,0.165468,-0.421798,1.08938,-0.0188051,0.00200819,-0.0208331,-0.00428873,0.000514641,-0.00134179,0.0119184,-0.00970851,0.00274752,0.00931158,-0.0246539,0.120604,0.00175441,-0.0276576,-0.0106153,-0.024842,0.0299499,-0.0911836,-0.0272457,0.00655479,-0.00207346,-0.0236519,0.0190946,-0.00969371,0.014535,-0.00428873,0.000514641,-0.00134179,0.0119184,-0.00970851,0.00274752,0,0,0,0,0,0,0,0,0,-0.000469603,-8.56175e-05,-8.95462e-05,-0.000392546,-0.000323201,0.000112237,-1.75412e-05,-0.000106666,0.000310428,0.000130708,-1.11534e-05,2.43646e-05
1414,0.00051179,0.00824118,0.0557017,-0.0328654,0.058562,0.058562,0.058562,0.058562,0.058562,0.058562,0.058562,0.058562,0.058562,-0.853094,-0.941438,0.0792308,1.27293,0.00824118,0.0557017,-0.0328654,-0.0072622,0.00267786,-0.00780822,0.00100386,0.0115878,-0.00888199,0.058562,0.578301,6.55523,0.0902793,0.948474,1.11025,0.546649,1.46251,-7.67373,0.00880275,0.113314,0.0253866,0.197354,-1.11749,-0.391678,-1.627,-0.0072622,0.00267786,-0.00780822,0.00100386,0.0115878,-0.00888199,0,0,0,0,0,0,0,0,0,-0.000164934,0.00264717,-0.000691664,0.00330204,-0.000218326,0.00162124,-0.000158989,0.00136063,0.000578843,0.00208637,-0.000990885,-0.00221082
1415,0.00051179,-0.0035908,0.00189005,-0.00204231,0.114559,0.114559,0.114559,0.114559,0.114559,0.114559,0.114559,0.114559,0.114559,-0.885441,-0.688422,0.668832,1.30586,-0.0035908,0.00189005,-0.00204231,0.00247831,-0.00106222,0.000490885,0.00323616,0.00301421,0.00449563,0.114559,0.00111373,-0.0120035,0.000614949,-0.00468317,-0.000105672,-0.0010484,0.022056,0.0157,-0.000246452,-0.00353103,-0.00146098,0.00113561,0.00632415,0.000387043,-0.0211493,0.00247831,-0.00106222,0.000490885,0.00323616,0.00301421,0.00449563,0,0,0,0,0,0,0,0,0,-0.00049784,4.73202e-06,-0.000388742,-0.000350379,-0.000340218,0.000384269,1.72035e-06,-1.81946e-06,0.000326283,0.000344803,1.73517e-05,1.11852e-05
1416,0.00051179,0.00210246,-0.00116302,-0.00383914,0.0911054,0.0911054,0.0911054,0.0911054,0.0911054,0.0911054,0.0911054,0.0911054,0.0911054,-0.908895,-0.433592,-0.423987,1.09264,0.00210246,-0.00116302,-0.00383914,-0.00568027,-0.000898164,-0.000332644,0.00117565,0.00322596,-0.00461625,0.0911054,-0.0211904,0.328835,0.000297911,-0.0272901,0.0102158,-0.0261163,0.257555,-0.341154,-9.33278e-05,-0.0336333,-0.00357645,0.00352218,0.0620864,-0.0202902,-0.257238,-0.00568027,-0.000898164,-0.000332644,0.00117565,0.00322596,-0.00461625,0,0,0,0,0,0,0,0,0,-0.000521459,-7.58593e-05,0.000300199,-0.000440803,-0.00032624,-0.000306201,6.39056e-05,-4.76157e-05,0.000328153,0.000176313,4.41107e-05,-6.60383e-05
1417,0.00051179,0.00156386,0.000818254,0.0053224,0.0157693,0.0157693,0.0157693,0.0157693,0.0157693,0.0157693,0.0157693,0.0157693,0.0157693,-0.984231,-0.0251685,0.79247,1.26386,0.00156386,0.000818254,0.0053224,-0.00012943,-0.00113007,0.00039291,0.0130714,-0.00125071,0.00211942,0.0157693,0.00161059,-0.0198343,0.000651248,-0.00197261,0.00035165,-0.00235527,0.0357579,0.0179187,0.0021062,0.00105729,-0.000678788,-0.000932589,9.70652e-05,0.00204176,-0.0401478,-0.00012943,-0.00113007,0.00039291,0.0130714,-0.00125071,0.00211942,0,0,0,0,0,0,0,0,0,-0.000666641,-1.66172e-05,-2.60848e-05,-0.000229913,-0.000338251,2.12966e-05,5.18649e-05,1.20311e-05,0.000297315,0.000210289,-3.13261e-05,-3.21709e-06
1418,0.00051179,0.00376686,0.022636,-0.0165954,0.0673407,0.0673407,0.0673407,0.0673407,0.0673407,0.0673407,0.0673407,0.0673407,0.0673407,-0.932659,-0.049676,0.22255,0.96013,0.00376686,0.022636,-0.0165954,0.00450182,-0.00556897,-0.00357147,-0.0052747,0.00113962,0.00516924,0.0673407,0.0653406,0.0629715,0.00497062,-0.00948166,0.135987,-0.0200019,-0.29303,-0.202726,0.0828301,-0.00353286,-0.000938256,-0.112443,-0.00962149,-0.0185615,0.422068,0.00450182,-0.00556897,-0.00357147,-0.0052747,0.00113962,0.00516924,0,0,0,0,0,0,0,0,0,-0.000518836,0.00019459,-3.11169e-05,-0.000284427,-0.000360573,2.51335e-05,0.000233155,4.43325e-05,0.000310354,4.86926e-05,-4.23189e-05,-0.000221583
1419,0.00051179,-0.00378875,0.00504312,0.00634101,0.0561883,0.0561883,0.0561883,0.0561883,0.0561883,0.0561883,0.0561883,0.0561883,0.0561883,-0.943812,-0.260148,0.446264,1.07592,-0.00378875,0.00504312,0.00634101,-0.000314184,-0.00197939,0.000599763,0.00166974,0.00122898,-0.000195241,0.0561883,0.0134599,-0.13232,-0.000889175,-0.00716944,0.00713902,-0.0164604,0.094915,0.12897,0.019982,0.0444748,0.00542677,-0.0211016,-0.0423484,0.0168046,-0.0801544,-0.000314184,-0.00197939,0.000599763,0.00166974,0.00122898,-0.000195241,0,0,0,0,0,0,0,0,0,-0.000569172,6.41288e-06,-0.000183535,-0.000254897,-0.000361377,0.00015485,4.89432e-05,8.75894e-05,0.000306889,9.6291e-05,-2.10319e-05,2.37313e-05
1420,0.00051179,0.0242667,-0.00560058,0.0214448,0.00894536,0.00894536,0.00894536,0.00894536,0.00894536,0.00894536,0.00894536,0.00894536,0.00894536,-0.991055,-0.0774265,0.460557,1.09558,0.0242667,-0.00560058,0.0214448,-0.0106041,-0.00246952,-0.0018309,9.30537e-05,-0.00226026,-0.00027125,0.00894536,0.0140637,-0.083875,0.000562973,-0.00709861,0.00602608,-0.0146204,0.0153537,0.0535822,0.0321106,0.00833247,0.00193892,-0.0188178,0.00436672,0.0142287,-0.0179807,-0.0106041,-0.00246952,-0.0018309,9.30537e-05,-0.00226026,-0.00027125,0,0,0,0,0,0,0,0,0,-0.000593148,-3.99566e-05,-5.03797e-05,-0.000252194,-0.000349665,3.13142e-05,0.000103764,3.66227e-05,0.000297144,8.76805e-05,-3.98361e-05,1.25325e-05
1421,0.00051179,0.0114359,0.00277975,0.000934929,0.0883891,0.0883891,0.0883891,0.0883891,0.0883891,0.0883891,0.0883891,0.0883891,0.0883891,-0.838389,0.302397,0.312172,0.944347,0.0114359,0.00277975,0.000934929,0.0015032,0.00206472,-0.00710886,0.00431241,-0.0180953,0.00899844,0.0883891,0.0184605,-0.466107,0.00549186,-0.109427,0.00691337,-0.0321987,0.41913,0.447758,0.0112847,-0.143948,-0.0185302,-0.0341602,0.250595,0.0389345,-0.385905,0.0015032,0.00206472,-0.00710886,0.00431241,-0.0180953,0.00899844,0,0,0,0,0,0,0,0,0,-0.000501484,3.47959e-06,0.000289027,-0.000620436,-0.000322932,-0.000213461,-1.83534e-05,-0.00025809,0.000294164,0.000227361,-0.000108164,0.000143326
1422,0.00051179,0.0120008,-0.00854659,0.00917542,0.0981325,0.0981325,0.0981325,0.0981325,0.0981325,0.0981325,0.0981325,0.0981325,0.0981325,-0.901868,0.415307,0.134338,1.00194,0.0120008,-0.00854659,0.00917542,0.0111111,-0.00820926,0.0065584,0.00485292,0.0156312,-0.00128549,0.0981325,0.510954,2.88649,0.0768876,0.760528,-0.240659,-0.0437475,-1.06844,-2.65784,0.108064,-0.0610112,-0.0247907,-0.0240986,-0.69097,-0.0924359,1.08336,0.0111111,-0.00820926,0.0065584,0.00485292,0.0156312,-0.00128549,0,0,0,0,0,0,0,0,0,-0.000365384,0.00198579,0.000502749,0.000197657,-0.000268364,0.000184034,-5.99453e-05,-8.02229e-05,0.000340238,-0.000569548,-1.13726e-05,-0.00109314
1423,0.00051179,0.00489359,0.00635346,0.0001742,0.0726557,0.0726557,0.0726557,0.0726557,0.0726557,0.0726557,0.0726557,0.0726557,0.0726557,-0.927344,-0.00879178,0.610338,1.11021,0.00489359,0.00635346,0.0001742,-0.00368581,0.0015663,0.00110446,0.00551262,-0.00156989,0.00205586,0.0726557,0.00282164,-0.0280732,-0.000723831,0.0155993,-0.000135771,-0.00330059,0.0317634,0.0233153,0.00602834,-0.000620228,0.00050127,-0.00196202,-0.0213325,0.00586544,-0.0299756,-0.00368581,0.0015663,0.00110446,0.00551262,-0.00156989,0.00205586,0,0,0,0,0,0,0,0,0,-0.000629716,-2.57802e-05,-9.50991e-06,-0.000200054,-0.000339562,1.79346e-05,3.62454e-05,2.17552e-05,0.000306323,0.000178093,-3.24414e-05,1.81472e-05
1424,0.00051179,0.000543064,0.000858001,0.00137993,0.0806533,0.0806533,0.0806533,0.0806533,0.0806533,0.0806533,0.0806533,0.0806533,0.0806533,-0.919347,0.861207,0.701996,1.44211,0.000543064,0.000858001,0.00137993,0.000315332,-0.000301372,0.00149035,0.00234998,-0.0023596,0.00639001,0.0806533,0.000786558,-0.0103315,0.000578947,-0.000429811,-0.00209706,-0.000428315,0.0132447,0.0118855,-0.000491397,-0.000608549,-0.0010199,-0.000701019,0.000180359,-0.000750776,-0.0139236,0.000315332,-0.000301372,0.00149035,0.00234998,-0.0023596,0.00639001,0,0,0,0,0,0,0,0,0,-0.000470214,-4.41329e-06,0.000361902,-0.000469194,-0.000325674,-0.000359126,-6.29808e-07,3.45496e-05,0.000273176,0.000479815,-6.83446e-05,1.82734e-05
1425,0.00051179,-0.00453723,-0.0033903,0.0197167,0.0582939,0.0582939,0.0582939,0.0582939,0.0582939,0.0582939,0.0582939,0.0582939,0.0582939,-0.808294,-0.443675,0.486408,1.04249,-0.00453723,-0.0033903,0.0197167,-0.00104478,0.00128713,0.00640555,-0.0105165,0.0012731,0.00661392,0.0582939,0.000879541,-0.0325166,0.000108846,0.00558951,-0.00169659,-0.00320084,0.0561164,0.0387504,-0.00763823,0.00492429,-0.00058094,0.00388011,-0.0071235,0.00551407,-0.0797132,-0.00104478,0.00128713,0.00640555,-0.0105165,0.0012731,0.00661392,0,0,0,0,0,0,0,0,0,-0.000533946,6.31843e-06,-0.000325138,-0.000271495,-0.000318075,0.000339098,-8.36292e-05,3.15177e-05,0.000337467,0.000303542,-2.45961e-05,6.77846e-05
1426,0.00051179,-0.0159389,0.00732588,-0.00498845,0.11075,0.11075,0.11075,0.11075,0.11075,0.11075,0.11075,0.11075,0.11075,-0.86075,-0.19266,-0.345394,0.947262,-0.0159389,0.00732588,-0.00498845,-0.00205796,0.00188374,-0.00106641,-0.00632538,0.01222,0.000651481,0.11075,-0.0138543,0.265483,0.000758238,-0.0489604,-0.0027664,-0.0234842,0.239375,-0.246777,-1.39046e-05,-0.024969,-0.00383837,-0.0141185,0.0666035,-0.0273879,-0.220268,-0.00205796,0.00188374,-0.00106641,-0.00632538,0.01222,0.000651481,0,0,0,0,0,0,0,0,0,-0.000512622,-2.30365e-05,0.000141455,-0.000542798,-0.000322009,-0.000115035,2.48281e-05,5.53441e-05,0.00034184,0.000297292,2.84721e-05,-7.71576e-05
1427,0.00051179,-0.00115179,-0.000595423,0.00566154,0.058362,0.058362,0.058362,0.058362,0.058362,0.058362,0.058362,0.058362,0.058362,-0.941638,0.467868,0.64917,1.23572,-0.00115179,-0.000595423,0.00566154,0.000340916,-2.61515e-05,-0.00107332,0.00540125,-0.00346688,0.00295158,0.058362,0.00209571,-0.0319992,-0.000435822,0.015128,-0.000297058,-0.00314436,0.0390396,0.0334481,0.00337811,-0.0056645,-0.000950827,-7.32997e-05,-0.00886809,0.00472903,-0.0446279,0.000340916,-2.61515e-05,-0.00107332,0.00540125,-0.00346688,0.00295158,0,0,0,0,0,0,0,0,0,-0.000577144,-9.62061e-06,0.00026115,-0.000281328,-0.000323618,-0.00026577,2.2093e-05,1.64097e-06,0.000289068,0.000239151,-4.58181e-05,1.65993e-05
1428,0.00051179,0.0860882,-0.0311217,0.0449324,0.0658102,0.0658102,0.0658102,0.0658102,0.0658102,0.0658102,0.0658102,0.0658102,0.0658102,-0.81581,0.903776,0.0866592,1.2206,0.0860882,-0.0311217,0.0449324,-0.0198285,-0.0285402,0.0174049,0.0103201,0.00821169,0.0155119,0.0658102,1.01726,11.6749,-0.183826,-1.83857,0.706712,0.416598,-0.570042,-12.4677,0.0103179,-0.247785,-0.0035784,0.215939,2.11747,-0.475955,0.309171,-0.0198285,-0.0285402,0.0174049,0.0103201,0.00821169,0.0155119,0,0,0,0,0,0,0,0,0,-3.5502e-05,0.00434374,-7.46029e-06,0.00329702,-0.000526452,-0.0021162,-0.000540224,-0.00145772,0.000541158,0.001043,0.00150405,-0.00294563
1429,0.00051179,-0.0180393,0.00375417,-0.0185446,0.0634983,0.0634983,0.0634983,0.0634983,0.0634983,0.0634983,0.0634983,0.0634983,0.0634983,-0.936502,0.375644,-0.348836,1.06763,-0.0180393,0.00375417,-0.0185446,-0.0034722,0.000504438,0.00750864,0.00569341,-0.00170539,-0.00188958,0.0634983,-0.0729808,0.538259,-0.00248694,0.0365907,0.00726616,-0.0647435,0.102492,-0.527486,-0.0127093,0.0441542,-0.0127038,-0.00292566,-0.0844991,-0.0345277,-0.0810222,-0.0034722,0.000504438,0.00750864,0.00569341,-0.00170539,-0.00188958,0,0,0,0,0,0,0,0,0,-0.000543542,-0.000243935,-0.000251821,-0.000535497,-0.000312829,0.000231996,0.000103251,-6.8327e-05,0.000303812,-3.68516e-05,-7.57652e-05,-4.37562e-05
1430,0.00051179,-0.0623403,-0.0404775,-0.013667,0.0530742,0.0530742,0.0530742,0.0530742,0.0530742,0.0530742,0.0530742,0.0530742,0.0530742,-0.914171,0.946926,0.0859265,1.319,-0.0623403,-0.0404775,-0.013667,-0.00644791,0.00596017,0.0067191,-0.00867765,-0.0176976,-0.0366321,0.0530742,0.312084,3.45776,-0.057156,-0.40752,0.814199,0.461956,0.489917,-4.20962,-8.59071e-05,-0.0217344,-0.0155027,0.279082,0.469732,-0.206714,-0.755332,-0.00644791,0.00596017,0.0067191,-0.00867765,-0.0176976,-0.0366321,0,0,0,0,0,0,0,0,0,-0.000282504,0.00146642,0.00075144,0.00257729,-0.000378782,-0.0012634,-0.000105579,-0.000741982,0.000415318,0.00210946,0.000409979,-0.00127849
1431,0.00051179,-0.0183451,0.0111124,-0.0298469,0.0686018,0.0686018,0.0686018,0.0686018,0.0686018,0.0686018,0.0686018,0.0686018,0.0686018,-0.931398,-0.788769,0.10917,1.22539,-0.0183451,0.0111124,-0.0298469,-0.0021843,-0.0120351,0.010206,-0.00134243,0.0151971,0.00607744,0.0686018,0.450895,3.47965,0.0891165,0.389881,-0.0833853,0.181474,-0.272351,-3.37792,0.0288589,0.18887,0.0169404,0.00440453,-0.589863,-0.125463,0.297794,-0.0021843,-0.0120351,0.010206,-0.00134243,0.0151971,0.00607744,0,0,0,0,0,0,0,0,0,-0.000318803,0.00183181,-0.000311518,0.00139795,-0.000334883,0.00108233,-0.000274157,0.000222333,0.000391625,0.000518854,9.90419e-05,-0.00100867
1432,0.00051179,-0.00391986,-0.00256322,-0.00176676,0.0775639,0.0775639,0.0775639,0.0775639,0.0775639,0.0775639,0.0775639,0.0775639,0.0775639,-0.827564,0.65587,0.666564,1.24873,-0.00391986,-0.00256322,-0.00176676,-0.000231141,-0.00270252,1.63093e-05,-0.00300378,0.00784042,0.00753718,0.0775639,0.000162378,-0.00314134,0.000561841,0.00150585,0.000423202,0.000145026,0.0107206,0.006638,-0.00156842,0.00492239,-0.000913616,0.00206484,-0.00386501,-0.000257783,-0.0110187,-0.000231141,-0.00270252,1.63093e-05,-0.00300378,0.00784042,0.00753718,0,0,0,0,0,0,0,0,0,-0.000526913,-3.38816e-06,0.000328168,-0.000355869,-0.000359261,-0.000349575,-2.59054e-05,7.76647e-05,0.000320308,0.000357482,-8.39663e-06,3.33526e-05
1433,0.00051179,-0.00565787,0.00586541,-0.0108006,0.10484,0.10484,0.10484,0.10484,0.10484,0.10484,0.10484,0.10484,0.10484,-0.85484,-0.310002,-0.548654,1.06201,-0.00565787,0.00586541,-0.0108006,-0.00392859,-0.00107146,0.000997812,-0.00118453,9.06549e-06,-0.00119535,0.10484,-9.61274e-05,0.0267603,-0.00125217,0.0077063,-0.000736861,-0.00328746,0.0554803,-0.0203655,0.0130577,0.00119288,-0.00458082,-0.00344974,-0.0147646,-0.00334902,-0.04123,-0.00392859,-0.00107146,0.000997812,-0.00118453,9.06549e-06,-0.00119535,0,0,0,0,0,0,0,0,0,-0.000446327,-2.3936e-05,0.000187879,-0.000336208,-0.000326151,-0.000211116,5.55535e-05,-6.08603e-05,0.00035198,0.000313312,1.51427e-05,-2.65343e-05
1434,0.00051179,-0.0192261,-0.0235703,0.0102476,0.120419,0.120419,0.120419,0.120419,0.120419,0.120419,0.120419,0.120419,0.120419,-0.870419,0.376924,0.120298,0.956124,-0.0192261,-0.0235703,0.0102476,0.0109138,-0.0134932,-0.00335064,-0.00269757,0.0137605,0.00481814,0.120419,0.578858,3.84157,0.11742,1.1314,-0.128551,-0.030015,-1.32477,-3.6938,0.137374,0.0008448,-0.0237003,-0.0349202,-1.10867,-0.111315,1.34945,0.0109138,-0.0134932,-0.00335064,-0.00269757,0.0137605,0.00481814,0,0,0,0,0,0,0,0,0,-0.000325002,0.00223584,0.0006922,0.000298032,-0.00025698,0.000347064,-3.96381e-05,-5.75917e-05,0.000339009,-0.000631688,-4.18068e-05,-0.00124551
1435,0.00051179,-0.0333605,0.00750445,0.0195854,0.0553221,0.0553221,0.0553221,0.0553221,0.0553221,0.0553221,0.0553221,0.0553221,0.0553221,-0.805322,0.663432,-0.214498,1.06522,-0.0333605,0.00750445,0.0195854,-0.0184449,0.0113082,-0.0294244,-0.0146923,-0.0254768,0.00552732,0.0553221,-0.175414,4.5261,0.0155697,-0.0569171,0.21871,-0.225008,2.65344,-4.71145,0.045571,0.0413279,0.033297,0.4297,0.00808466,-0.257672,-3.10272,-0.0184449,0.0113082,-0.0294244,-0.0146923,-0.0254768,0.00552732,0,0,0,0,0,0,0,0,0,-0.000909001,-0.000490305,-0.000368842,-0.00309211,-0.000184501,0.00063762,0.000633384,-4.20244e-05,0.000261895,0.000547781,0.000120226,-0.000781733
1436,0.00051179,0.00233829,0.0110415,-0.00604903,0.0264895,0.0264895,0.0264895,0.0264895,0.0264895,0.0264895,0.0264895,0.0264895,0.0264895,-0.973511,0.694178,0.621291,1.34745,0.00233829,0.0110415,-0.00604903,0.00297631,-0.00505735,-0.00182851,0.00659351,-0.0115249,0.000499152,0.0264895,0.00412352,-0.040335,-0.00183343,0.0196358,0.00102872,-0.0048703,0.027051,0.036968,0.00326945,-0.0224097,-0.00066587,0.00174624,-0.00826761,0.00530108,-0.0227482,0.00297631,-0.00505735,-0.00182851,0.00659351,-0.0115249,0.000499152,0,0,0,0,0,0,0,0,0,-0.000496455,9.23414e-06,0.000361726,-0.000382304,-0.000306988,-0.000430634,2.30497e-05,-1.66506e-05,0.000264727,0.000315316,-0.000105257,2.73615e-06
1437,0.00051179,0.00504845,-0.00120361,-0.00442312,0.0736025,0.0736025,0.0736025,0.0736025,0.0736025,0.0736025,0.0736025,0.0736025,0.0736025,-0.823602,-0.207711,-0.819075,1.17998,0.00504845,-0.00120361,-0.00442312,-0.00756108,0.00137852,0.00227548,0.00246018,-0.00300459,-0.004617,0.0736025,0.000233606,0.0058932,-0.000788681,0.00440134,-0.000294971,0.000374645,-0.000602314,-0.0106467,0.00104786,0.00431432,-0.000756616,-0.00101475,-0.00751205,0.000476018,0.00604019,-0.00756108,0.00137852,0.00227548,0.00246018,-0.00300459,-0.004617,0,0,0,0,0,0,0,0,0,-0.000344731,-2.74523e-05,0.000114334,-0.000314374,-0.00031125,-0.000108436,2.67253e-05,-3.54228e-05,0.00036741,0.000340876,-2.1893e-06,-1.15198e-05
1438,0.00051179,-0.0122856,-0.0031488,0.0157876,0.0265074,0.0265074,0.0265074,0.0265074,0.0265074,0.0265074,0.0265074,0.0265074,0.0265074,-0.776507,-0.14181,-0.431476,0.899581,-0.0122856,-0.0031488,0.0157876,0.000823566,-0.000572211,0.00114487,-0.000194824,0.00355307,0.0100609,0.0265074,-0.00102888,0.0218906,-0.000260703,0.00221833,-0.000147797,-0.000900198,0.0364719,-0.00945719,0.0254742,0.0139296,-0.0070229,0.00152638,-0.0129991,-0.00842021,-0.0537859,0.000823566,-0.000572211,0.00114487,-0.000194824,0.00355307,0.0100609,0,0,0,0,0,0,0,0,0,-0.000468917,-3.18513e-05,8.91287e-05,-0.000398951,-0.000329906,-9.74579e-05,9.55723e-05,-2.83524e-05,0.000377484,0.000401397,-6.34589e-06,-2.26214e-05
1439,0.00051179,-0.0281181,0.00647029,-0.00838423,0.0819365,0.0819365,0.0819365,0.0819365,0.0819365,0.0819365,0.0819365,0.0819365,0.0819365,-0.918063,-0.775733,0.171369,1.21407,-0.0281181,0.00647029,-0.00838423,0.00394863,-0.0086906,0.0174177,0.00104442,0.0129874,0.00611246,0.0819365,0.412888,2.15662,0.0836981,0.118866,-0.2097,-0.0245918,-1.62314,-1.9188,0.0224706,0.192021,-0.0136003,0.144191,-0.317357,-0.067038,1.48734,0.00394863,-0.0086906,0.0174177,0.00104442,0.0129874,0.00611246,0,0,0,0,0,0,0,0,0,-0.000252336,0.00164638,-0.000414002,6.27331e-05,-0.000316137,0.00116408,-0.000320224,2.65885e-05,0.000336275,-0.000134474,-3.27171e-05,-0.000742427
1440,0.00051179,0.015187,-0.000974268,0.0341498,0.0136285,0.0136285,0.0136285,0.0136285,0.0136285,0.0136285,0.0136285,0.0136285,0.0136285,-0.986371,-0.257649,-0.0466108,1.02053,0.015187,-0.000974268,0.0341498,0.0146222,-0.0138237,0.00246915,0.00701027,-0.00556248,-0.0118901,0.0136285,-0.0825464,-0.726226,0.0391639,0.113026,-0.0134465,0.0828065,0.327221,0.724485,-0.0210222,0.0615497,-0.057951,0.0775652,-0.173601,0.0190972,-0.438936,0.0146222,-0.0138237,0.00246915,0.00701027,-0.00556248,-0.0118901,0,0,0,0,0,0,0,0,0,-0.000575624,-0.000253395,0.000139312,0.000376855,-0.000348801,0.00011409,1.61661e-05,-0.000337484,0.000396036,0.000475901,-0.000297652,0.000122261
1441,0.00051179,0.0105996,0.0179343,-0.00399128,0.0830096,0.0830096,0.0830096,0.0830096,0.0830096,0.0830096,0.0830096,0.0830096,0.0830096,-0.83301,0.213435,0.312521,0.914948,0.0105996,0.0179343,-0.00399128,0.000900525,0.00337532,-0.00384968,0.00641449,-0.0164207,0.00517501,0.0830096,0.0113181,-0.320538,0.00402785,-0.0817851,0.01247,-0.0230446,0.328806,0.297469,0.0202337,-0.123715,-0.0139324,-0.0505565,0.187566,0.0291024,-0.274258,0.000900525,0.00337532,-0.00384968,0.00641449,-0.0164207,0.00517501,0,0,0,0,0,0,0,0,0,-0.000524431,-2.3304e-05,0.000219168,-0.000514963,-0.000325436,-0.000145137,4.88438e-05,-0.000215346,0.000304192,0.00024602,-8.81849e-05,8.69898e-05
1442,0.00051179,0.0017999,0.00464616,0.00733694,0.124383,0.124383,0.124383,0.124383,0.124383,0.124383,0.124383,0.124383,0.124383,-0.874383,-0.142162,0.332236,0.946116,0.0017999,0.00464616,0.00733694,0.00505382,-0.0026507,-0.00116823,-0.00426472,0.0114535,0.00259683,0.124383,0.0130281,-0.254134,-0.000419609,-0.0119192,0.0187453,-0.022097,0.172925,0.233589,0.0394669,0.0730579,0.00596616,-0.0607424,-0.0657849,0.0205432,-0.119519,0.00505382,-0.0026507,-0.00116823,-0.00426472,0.0114535,0.00259683,0,0,0,0,0,0,0,0,0,-0.000549413,2.22791e-06,-0.000117587,-0.000404214,-0.00036102,8.68843e-05,8.78291e-05,0.000172521,0.000311531,0.000171562,1.67606e-06,2.75186e-05
1443,0.00051179,-0.00491347,-0.00193859,-0.00918098,0.037354,0.037354,0.037354,0.037354,0.037354,0.037354,0.037354,0.037354,0.037354,-0.962646,-0.466477,-0.71091,1.2844,-0.00491347,-0.00193859,-0.00918098,-0.00174762,0.0040033,-0.000326853,-0.0103487,0.00336391,0.00497439,0.037354,-0.00243752,0.0326051,-0.00254457,0.0143778,-0.00140029,-0.00187138,0.0151735,-0.0262914,0.000631792,0.00371889,-0.00193593,-0.00454576,-0.0161581,-0.00196729,-0.00144675,-0.00174762,0.0040033,-0.000326853,-0.0103487,0.00336391,0.00497439,0,0,0,0,0,0,0,0,0,-0.000427768,-8.35459e-06,0.000272864,-0.000346926,-0.000292236,-0.000258276,-3.60134e-05,-5.43068e-05,0.000313632,0.000324944,6.85865e-05,2.76065e-05
1444,0.00051179,-0.017314,-0.0257721,0.0778737,0.00111697,0.00111697,0.00111697,0.00111697,0.00111697,0.00111697,0.00111697,0.00111697,0.00111697,-0.748883,-0.731247,-0.0316337,1.04716,-0.017314,-0.0257721,0.0778737,0.00973114,0.0313831,-0.0611861,-0.0182708,-0.0155497,-0.0214966,0.00111697,-1.17665,-10.2508,-0.0559909,0.256227,1.09454,0.977029,-0.0902088,9.1736,-0.141393,-0.703771,0.0984299,-0.956464,0.473316,-0.0176392,0.968799,0.00973114,0.0313831,-0.0611861,-0.0182708,-0.0155497,-0.0214966,0,0,0,0,0,0,0,0,0,-0.00104434,-0.00425877,-3.36538e-05,0.0139604,-0.000432605,-0.000212424,0.000777512,0.00205485,0.000396192,-0.00480196,-0.00122604,0.00138015
1445,0.00051179,-0.000257507,0.00157184,0.000729594,0.0687904,0.0687904,0.0687904,0.0687904,0.0687904,0.0687904,0.0687904,0.0687904,0.0687904,-0.93121,0.764662,0.484147,1.29856,-0.000257507,0.00157184,0.000729594,-0.00158527,-0.000981912,-0.00274224,0.00442293,-0.00847282,0.00399472,0.0687904,0.00653221,-0.0641733,-0.0056349,0.0269792,-0.00392687,-0.00860646,0.0411009,0.0683577,-0.00382765,0.0200826,0.00305641,0.0155194,-0.0486336,0.00810332,-0.0573499,-0.00158527,-0.000981912,-0.00274224,0.00442293,-0.00847282,0.00399472,0,0,0,0,0,0,0,0,0,-0.000406608,4.38055e-06,0.000488509,-0.000485082,-0.000327969,-0.000554677,-1.73777e-05,3.82411e-05,0.000269122,0.000371595,-9.24053e-05,4.01361e-05
1446,0.00051179,-0.00115901,0.0112631,-0.0119698,0.0860613,0.0860613,0.0860613,0.0860613,0.0860613,0.0860613,0.0860613,0.0860613,0.0860613,-0.836061,0.717103,-0.342243,1.15341,-0.00115901,0.0112631,-0.0119698,-0.0126248,-0.00248899,-0.00368562,-0.000710122,0.0121166,-0.010997,0.0860613,-0.0144046,0.405651,0.00533909,-0.0765376,0.000489264,-0.0238032,0.396131,-0.404982,0.0367345,-0.0965533,0.0186327,0.0828495,0.161828,-0.0360897,-0.46701,-0.0126248,-0.00248899,-0.00368562,-0.000710122,0.0121166,-0.010997,0,0,0,0,0,0,0,0,0,-0.000713028,-9.11954e-05,-0.000577556,-0.000871507,-0.000202948,0.000606057,0.000224074,0.000286475,0.000305422,0.000596618,2.10178e-05,-0.000191481
1447,0.00051179,0.0821253,0.00741936,0.0285271,0.0317034,0.0317034,0.0317034,0.0317034,0.0317034,0.0317034,0.0317034,0.0317034,0.0317034,-0.718297,0.916141,0.00247867,1.16416,0.0821253,0.00741936,0.0285271,0.0179767,0.00913477,-0.0877299,0.0119544,-0.0564581,-0.0234919,0.0317034,0.0677697,1.10118,-0.0320627,0.0154342,0.0696658,1.73166,-1.11854,-1.25297,-0.00124188,-0.0762057,-0.169714,1.10748,0.0533521,0.0362394,-0.0174572,0.0179767,0.00913477,-0.0877299,0.0119544,-0.0564581,-0.0234919,0,0,0,0,0,0,0,0,0,-0.000549398,0.000302725,-4.7248e-05,0.0195744,-0.000324899,-0.000182031,-7.24449e-05,-0.00893065,0.000799291,-0.00313506,0.00666894,-6.22698e-05
1448,0.00051179,0.0109644,-0.014201,-0.0199567,0.118371,0.118371,0.118371,0.118371,0.118371,0.118371,0.118371,0.118371,0.118371,-0.868371,0.230753,-0.15254,0.911364,0.0109644,-0.014201,-0.0199567,-0.0168424,0.00679793,-0.00492097,-0.00281838,0.000382795,-0.00355124,0.118371,-0.283462,-1.13834,-0.11087,-0.367478,-0.329762,-0.07551,-1.14797,1.45714,-0.0885024,-0.100356,-0.0321108,-0.0804961,0.482034,0.0347442,1.24842,-0.0168424,0.00679793,-0.00492097,-0.00281838,0.000382795,-0.00355124,0,0,0,0,0,0,0,0,0,-0.000678055,-0.00108564,-0.00062371,-0.00050937,-0.000362867,-0.000417014,-4.07201e-05,-0.000200476,0.000338309,-0.00029494,-0.000116803,0.000571848
1449,0.00051179,0.00503809,0.00369616,0.00746934,0.0816685,0.0816685,0.0816685,0.0816685,0.0816685,0.0816685,0.0816685,0.0816685,0.0816685,-0.831668,-0.693309,0.55105,1.21491,0.00503809,0.00369616,0.00746934,-0.000802571,0.000642434,0.000387289,-0.00501679,-0.0083136,0.00740086,0.0816685,0.00154354,-0.0218887,0.000489779,-0.00621961,-7.56049e-05,-0.00162455,0.0313517,0.0169262,-0.00206985,-0.00762522,-0.0019503,0.00267792,0.0101487,0.00202492,-0.041499,-0.000802571,0.000642434,0.000387289,-0.00501679,-0.0083136,0.00740086,0,0,0,0,0,0,0,0,0,-0.00045386,1.50849e-07,-0.000459241,-0.000363168,-0.000313068,0.000470563,-3.89872e-05,-7.4317e-05,0.000341617,0.000350796,-2.8322e-05,4.35749e-05
1450,0.00051179,-0.632032,0.10163,0.264528,0.00893969,0.00893969,0.00893969,0.00893969,0.00893969,0.00893969,0.00893969,0.00893969,0.00893969,-0.727156,-0.767791,0.123092,1.06462,-0.632032,0.10163,0.264528,0.224611,0.0771014,-1.00628,0.0100784,0.0343725,-0.182081,0.00893969,1.4233,-29.8472,0.192681,-2.61628,-0.805694,-0.984294,7.58712,31.2849,0.15774,1.29109,-0.159142,0.646148,1.22356,0.829982,-8.4978,0.224611,0.0771014,-1.00628,0.0100784,0.0343725,-0.182081,0,0,0,0,0,0,0,0,0,0.000538729,0.00539691,0.000592918,-0.0123868,-8.26959e-05,0.0021049,-0.00200356,0.000551714,0.000137113,-0.00751902,-0.00179941,0.000396851
1451,0.00051179,-0.0359976,0.0572339,-0.0205555,0.023329,0.023329,0.023329,0.023329,0.023329,0.023329,0.023329,0.023329,0.023329,-0.773329,-0.214825,-0.121523,0.811761,-0.0359976,0.0572339,-0.0205555,-0.0412054,0.0245916,0.0474955,0.00628242,0.0245647,0.0161441,0.023329,-0.503819,-2.81055,0.193946,0.694381,-0.845073,-0.197205,-3.92044,3.69162,-0.277832,0.277581,0.0745566,-0.419105,-1.0292,-0.126558,4.3601,-0.0412054,0.0245916,0.0474955,0.00628242,0.0245647,0.0161441,0,0,0,0,0,0,0,0,0,-0.000803679,-0.00165552,0.00132025,-0.000902311,-0.000242764,0.000865118,-0.000288146,0.000650478,0.000331342,-0.000594781,0.000340735,0.000517533
1452,0.00051179,-0.00580589,0.00845809,0.0198305,0.0473305,0.0473305,0.0473305,0.0473305,0.0473305,0.0473305,0.0473305,0.0473305,0.0473305,-0.95267,0.421749,0.0122184,1.04192,-0.00580589,0.00845809,0.0198305,0.00418943,-0.00429425,-0.0259736,0.00178229,0.00988042,-0.0105908,0.0473305,0.0745396,0.227226,-0.00153249,0.125742,-0.0041379,0.181308,1.27596,-0.217283,0.0303722,0.00182963,0.0385528,-0.181487,-0.13603,-0.0105302,-1.1143,0.00418943,-0.00429425,-0.0259736,0.00178229,0.00988042,-0.0105908,0,0,0,0,0,0,0,0,0,-0.000562049,0.000290073,-7.94588e-05,0.00118406,-0.000298047,2.11914e-05,5.72005e-05,0.0002637,0.000440925,0.000369286,0.000220633,-0.000209177
1453,0.00051179,-0.00856256,0.027243,0.00222236,0.0319608,0.0319608,0.0319608,0.0319608,0.0319608,0.0319608,0.0319608,0.0319608,0.0319608,-0.968039,-0.582222,0.150133,1.13957,-0.00856256,0.027243,0.00222236,-0.012674,-0.0145966,0.0196429,0.0260236,0.0074758,0.0281141,0.0319608,0.429611,2.14776,0.031266,-0.288387,-0.35934,-0.0183425,-0.613487,-1.77986,0.058507,0.173191,0.00340632,0.0037784,0.0879521,-0.058434,0.607487,-0.012674,-0.0145966,0.0196429,0.0260236,0.0074758,0.0281141,0,0,0,0,0,0,0,0,0,-0.00041879,0.00154105,-0.000375757,0.000473172,-0.000408584,0.00054245,-0.000120978,3.5139e-05,0.000385977,-0.000460168,7.36822e-05,-0.000695231
1454,0.00051179,0.00390658,0.000969627,0.00296446,0.0358596,0.0358596,0.0358596,0.0358596,0.0358596,0.0358596,0.0358596,0.0358596,0.0358596,-0.96414,-0.385234,0.725153,1.26642,0.00390658,0.000969627,0.00296446,0.000588912,-0.00208652,-0.00160454,0.0113473,0.00358448,0.000464618,0.0358596,0.00147332,-0.0193084,0.000563152,0.00113771,-0.00159654,-0.00234924,0.0336591,0.0169984,0.00185503,0.0022719,-0.000674796,0.00158553,-0.00437923,0.00306664,-0.0382091,0.000588912,-0.00208652,-0.00160454,0.0113473,0.00358448,0.000464618,0,0,0,0,0,0,0,0,0,-0.000607274,-1.13763e-05,-0.000222273,-0.000245387,-0.000355804,0.00020704,4.43243e-05,3.30317e-05,0.00030826,0.000205849,-3.93489e-06,-4.03123e-06
1455,0.00051179,-0.00154011,-0.0063661,-0.00370616,0.0807141,0.0807141,0.0807141,0.0807141,0.0807141,0.0807141,0.0807141,0.0807141,0.0807141,-0.830714,-0.682435,-0.742303,1.30645,-0.00154011,-0.0063661,-0.00370616,-0.00553955,0.0021781,0.00317163,-0.0010107,-0.00476287,-0.000289753,0.0807141,0.00065048,0.0057642,-0.000790946,0.00555723,0.000201538,-0.000214551,0.000247766,-0.00442563,0.00110064,0.00741416,-0.00069729,0.000398776,-0.00660529,0.000880387,0.00305961,-0.00553955,0.0021781,0.00317163,-0.0010107,-0.00476287,-0.000289753,0,0,0,0,0,0,0,0,0,-0.000485592,-1.95894e-05,0.000341541,-0.000425286,-0.000326598,-0.00032767,5.30566e-06,-0.000131737,0.000348784,0.000454857,7.71356e-05,7.80912e-06
1456,0.00051179,0.00325725,0.00529628,-0.00388823,0.0740052,0.0740052,0.0740052,0.0740052,0.0740052,0.0740052,0.0740052,0.0740052,0.0740052,-0.824005,0.827556,-0.751355,1.38866,0.00325725,0.00529628,-0.00388823,-0.00364434,-0.00225912,-0.000629749,0.00018654,0.00225835,0.0027272,0.0740052,0.00124694,0.00120108,-0.000770025,0.00340532,-0.000464521,0.000392564,-0.00568838,-0.00399381,0.000476433,-0.00607477,-0.000264793,0.00309045,-0.00262683,0.00149432,0.00648615,-0.00364434,-0.00225912,-0.000629749,0.00018654,0.00225835,0.0027272,0,0,0,0,0,0,0,0,0,-0.000526324,-1.48567e-05,-0.00035159,-0.000545809,-0.000278378,0.000321299,4.45136e-07,0.000134859,0.00031586,0.000543437,-0.000114923,1.82379e-05
1457,0.00051179,0.0284508,-0.0386655,-0.0135265,0.0177914,0.0177914,0.0177914,0.0177914,0.0177914,0.0177914,0.0177914,0.0177914,0.0177914,-0.767791,-0.059145,-0.0494908,0.771655,0.0284508,-0.0386655,-0.0135265,0.0240129,-0.0010757,0.011876,0.00492281,-0.00423047,-0.00386896,0.0177914,-0.169881,-1.02111,0.054409,0.482635,-0.982084,0.118271,-0.415109,1.97474,-0.143511,0.152103,-0.0438206,0.549957,-0.596072,0.00704253,-0.121321,0.0240129,-0.0010757,0.011876,0.00492281,-0.00423047,-0.00386896,0,0,0,0,0,0,0,0,0,-0.000627056,-0.000404782,0.000266804,0.00144314,-0.000316048,0.000266529,-0.000368383,-0.000492288,0.000402048,-0.000141669,1.17776e-05,0.000340424
1458,0.00051179,0.613205,-0.0495539,0.31861,0.00673542,0.00673542,0.00673542,0.00673542,0.00673542,0.00673542,0.00673542,0.00673542,0.00673542,-0.705763,-0.945823,-0.0932646,1.1838,0.613205,-0.0495539,0.31861,0.336073,-0.549803,0.279591,-0.0662612,-0.1963,0.13631,0.00673542,-3.99343,-60.2223,-0.43643,-3.38105,-5.70374,-0.463231,-12.7661,65.3129,-0.088703,-2.0263,-0.103735,-1.14148,5.45691,-0.321649,13.589,0.336073,-0.549803,0.279591,-0.0662612,-0.1963,0.13631,0,0,0,0,0,0,0,0,0,-0.0019731,-0.0136741,0.00111407,-0.0018279,-0.00127005,-0.0109764,0.00383787,0.00531313,0.000872321,-8.50113e-06,-0.00831348,0.003686
1459,0.00051179,0.0113912,0.00117246,0.00389624,0.056709,0.056709,0.056709,0.056709,0.056709,0.056709,0.056709,0.056709,0.056709,-0.806709,0.863068,0.504899,1.28475,0.0113912,0.00117246,0.00389624,0.00698171,-0.00181845,0.00341329,0.00262038,0.0178129,-0.00125009,0.056709,0.0012771,-0.0107087,-0.00117528,0.014975,0.0017024,-0.000457916,0.000442333,-0.00238496,-0.00638037,0.0260356,0.00221733,-0.00527588,-0.0421831,0.000177499,0.000937309,0.00698171,-0.00181845,0.00341329,0.00262038,0.0178129,-0.00125009,0,0,0,0,0,0,0,0,0,-0.000368737,3.73407e-05,0.000493226,-0.000573232,-0.000393653,-0.000523163,-2.27533e-05,0.000180239,0.000327766,0.000602786,2.00637e-05,-9.31631e-06
1460,0.00051179,0.0139701,-0.00828993,0.00495064,0.0902065,0.0902065,0.0902065,0.0902065,0.0902065,0.0902065,0.0902065,0.0902065,0.0902065,-0.840207,-0.0918492,-0.00616244,0.845234,0.0139701,-0.00828993,0.00495064,0.00400046,-0.0086344,-0.010197,-0.00257499,-0.00482363,0.00173545,0.0902065,-0.0207948,-0.0675323,0.0135111,0.0189174,-0.055642,0.14555,0.714262,0.109204,0.0106419,0.038079,-0.0550946,0.477138,-0.0487065,-0.00843108,-1.19635,0.00400046,-0.0086344,-0.010197,-0.00257499,-0.00482363,0.00173545,0,0,0,0,0,0,0,0,0,-0.000554793,-6.61758e-05,4.06403e-05,0.00117027,-0.000345105,8.12638e-06,5.81303e-05,-0.000476427,0.000415102,0.000183264,-0.000122756,-1.56823e-05
1461,0.00051179,-0.00117315,-0.000641883,0.00618875,0.015298,0.015298,0.015298,0.015298,0.015298,0.015298,0.015298,0.015298,0.015298,-0.890453,-0.984702,0.84448,1.57343,-0.00117315,-0.000641883,0.00618875,-0.0007492,-0.00161013,-0.00973122,0.000677672,-0.00184553,0.00586188,0.015298,0.0011598,-0.00152245,-0.000228636,-0.00276356,0.000615077,-0.000190321,0.00161426,0.00208052,-0.000208901,0.00325348,0.000182527,-0.00775048,0.000151968,-0.000985447,-5.2537e-05,-0.0007492,-0.00161013,-0.00973122,0.000677672,-0.00184553,0.00586188,0,0,0,0,0,0,0,0,0,-0.000461675,-4.5883e-06,-0.000340663,-0.000500078,-0.000342006,0.000322275,-4.29746e-06,8.12832e-07,0.000320002,0.000400863,-1.74429e-05,1.77408e-05
1462,0.00051179,-0.0123774,-0.00792925,-0.00899333,0.117296,0.117296,0.117296,0.117296,0.117296,0.117296,0.117296,0.117296,0.117296,-0.867296,-0.574861,-0.350909,1.09809,-0.0123774,-0.00792925,-0.00899333,-0.00445415,-0.000574768,-0.00023439,0.00288705,0.000542781,-0.00746505,0.117296,-0.0356337,0.722455,-0.00259637,-0.00252055,0.0370772,-0.0481225,0.593834,-0.747155,0.0168553,-0.0352586,-0.00679814,0.0599453,0.0457084,-0.0493861,-0.644786,-0.00445415,-0.000574768,-0.00023439,0.00288705,0.000542781,-0.00746505,0,0,0,0,0,0,0,0,0,-0.000620537,-0.000111366,0.0004417,-0.000780386,-0.000364268,-0.000473411,0.000187785,-9.8726e-05,0.000321321,0.000296817,3.61724e-05,-0.000195183
1463,0.00051179,0.0457563,0.0261988,0.00176048,0.0856026,0.0856026,0.0856026,0.0856026,0.0856026,0.0856026,0.0856026,0.0856026,0.0856026,-0.835603,-0.849441,0.00526807,1.19156,0.0457563,0.0261988,0.00176048,-0.00669638,-0.0152084,-0.00182885,0.00601426,0.00873806,-0.00569704,0.0856026,0.0474382,0.561268,0.0236965,0.132633,-0.0333485,0.828364,5.84305,-0.573676,-0.000649648,0.0254129,0.119774,-0.0123129,-0.184245,-0.0382281,-5.8325,-0.00669638,-0.0152084,-0.00182885,0.00601426,0.00873806,-0.00569704,0,0,0,0,0,0,0,0,0,-0.000529952,0.000201192,1.06612e-05,0.00656996,-0.000358218,7.42201e-05,2.43062e-05,0.00219598,0.00062187,0.00169539,-0.000910857,-0.000222143
1464,0.00051179,-0.000547886,0.067502,-0.115818,0.0344243,0.0344243,0.0344243,0.0344243,0.0344243,0.0344243,0.0344243,0.0344243,0.0344243,-0.784424,-0.919727,-0.23126,1.23073,-0.000547886,0.067502,-0.115818,-0.0486765,0.00249003,0.0154625,0.0306986,-0.101765,0.0445163,0.0344243,-0.0140372,1.06524,-0.0158306,0.463933,-0.115132,-0.0195443,0.608893,-0.949561,0.00760571,0.209831,-0.0521491,-0.346838,-0.741267,0.0585279,-0.146237,-0.0486765,0.00249003,0.0154625,0.0306986,-0.101765,0.0445163,0,0,0,0,0,0,0,0,0,-0.000958502,-0.000404301,0.000593058,-0.00173241,-0.000564093,-0.000726464,0.000100789,-0.00117378,0.000418298,0.00169159,-0.000365355,0.000424489
1465,0.00051179,0.000404889,0.00789496,-0.00878434,0.0278528,0.0278528,0.0278528,0.0278528,0.0278528,0.0278528,0.0278528,0.0278528,0.0278528,-0.972147,-0.751556,-0.698011,1.4132,0.000404889,0.00789496,-0.00878434,0.000128896,-0.00229118,0.00128031,-0.00630712,0.0142294,0.0043954,0.0278528,-0.000617072,0.0269352,-0.00193899,0.00778277,-0.00463022,0.000198003,0.00851221,-0.0227099,-0.000434147,0.00100619,-0.0017716,-0.00151465,-0.0166839,-0.00204558,0.00178678,0.000128896,-0.00229118,0.00128031,-0.00630712,0.0142294,0.0043954,0,0,0,0,0,0,0,0,0,-0.000528648,3.18944e-06,0.000383815,-0.000453355,-0.0002796,-0.000426117,-2.8076e-05,-5.63156e-05,0.000274993,0.000468139,0.000180894,1.73795e-05
1466,0.00051179,-0.0220516,0.0095758,0.0045363,0.0377214,0.0377214,0.0377214,0.0377214,0.0377214,0.0377214,0.0377214,0.0377214,0.0377214,-0.787721,0.511241,-0.374328,1.01094,-0.0220516,0.0095758,0.0045363,-0.0250787,-0.00155307,0.0049169,0.0139764,-0.00129111,0.00640903,0.0377214,-0.000876412,0.114388,0.00116099,-0.0334031,0.00226846,-0.00516495,0.233519,-0.094605,0.0407734,-0.00857381,0.000124533,0.044112,0.0324011,-0.02216,-0.282168,-0.0250787,-0.00155307,0.0049169,0.0139764,-0.00129111,0.00640903,0,0,0,0,0,0,0,0,0,-0.000591107,-0.000144826,-0.00040728,-0.000642225,-0.000235165,0.000403359,0.000258699,3.11192e-05,0.000343606,0.000639745,-4.2785e-05,-9.38052e-05
1467,0.00051179,0.0013696,-0.00110245,0.000655687,0.0835643,0.0835643,0.0835643,0.0835643,0.0835643,0.0835643,0.0835643,0.0835643,0.0835643,-0.916436,-0.435536,-0.765487,1.27103,0.0013696,-0.00110245,0.000655687,-0.00405162,0.00424086,0.000871893,-0.00468362,-0.000368167,0.000642024,0.0835643,-0.00100516,0.0182123,-0.00156041,0.010371,-0.000907411,-0.000346623,0.00102155,-0.0186745,-0.000496866,0.0019982,-0.000845918,-0.00324294,-0.0112668,-0.00106134,0.00156571,-0.00405162,0.00424086,0.000871893,-0.00468362,-0.000368167,0.000642024,0,0,0,0,0,0,0,0,0,-0.000401393,-1.29879e-05,0.000243749,-0.000343134,-0.000300581,-0.000216945,-1.36064e-05,-6.32079e-05,0.000330083,0.000348387,5.1067e-05,1.01995e-05
1468,0.00051179,0.0287893,0.00984997,-0.00293645,0.0510195,0.0510195,0.0510195,0.0510195,0.0510195,0.0510195,0.0510195,0.0510195,0.0510195,-0.948981,-0.290957,0.279316,1.03113,0.0287893,0.00984997,-0.00293645,9.6906e-05,-0.000121494,0.00723548,-0.00371845,-0.00547534,0.000795003,0.0510195,0.107594,-0.395485,-0.0106147,0.00449958,0.051692,-0.0601044,-0.192928,0.315004,0.0603643,0.0493539,0.0225319,-0.0779808,-0.0637034,0.0125255,0.273845,9.6906e-05,-0.000121494,0.00723548,-0.00371845,-0.00547534,0.000795003,0,0,0,0,0,0,0,0,0,-0.000512496,0.000333467,-0.000204619,-0.000336435,-0.000391984,9.72563e-05,7.82398e-05,0.000210517,0.000312008,-0.000192255,-3.9952e-05,-0.000138387
1469,0.00051179,-0.00805074,0.0112946,0.0259298,0.0113372,0.0113372,0.0113372,0.0113372,0.0113372,0.0113372,0.0113372,0.0113372,0.0113372,-0.738663,0.0602837,0.0165983,0.741304,-0.00805074,0.0112946,0.0259298,-0.0051965,-0.0294791,0.0456546,0.0141872,-0.0105839,-0.0120302,0.0113372,0.0561455,0.0857487,0.0367842,0.154443,0.376273,0.1289,-1.44423,-0.453971,0.0645391,0.0118335,0.0609866,1.03417,-0.177571,-0.0075712,0.384138,-0.0051965,-0.0294791,0.0456546,0.0141872,-0.0105839,-0.0120302,0,0,0,0,0,0,0,0,0,-0.000518464,0.000127737,0.000101426,0.00199397,-0.000324899,-2.83757e-05,0.000266623,0.000691608,0.000394695,-0.00024842,-0.00018758,-0.000225015
1470,0.00051179,-0.00426673,0.00474223,0.00503858,0.0971616,0.0971616,0.0971616,0.0971616,0.0971616,0.0971616,0.0971616,0.0971616,0.0971616,-0.847162,-0.767744,-0.522659,1.25709,-0.00426673,0.00474223,0.00503858,-0.00378974,0.00273273,0.00267226,-0.000480167,-0.0101071,0.00187528,0.0971616,0.000781074,0.0304293,-0.00139105,0.00516239,-0.0014136,-0.0015502,0.0455653,-0.024749,0.00755761,0.0253405,-0.00410828,-0.00642523,-0.0352451,-0.00141658,-0.0441786,-0.00378974,0.00273273,0.00267226,-0.000480167,-0.0101071,0.00187528,0,0,0,0,0,0,0,0,0,-0.000620216,-2.02674e-05,0.000493979,-0.000509945,-0.000358695,-0.000480562,3.01632e-05,-0.000224843,0.000334635,0.000521165,8.26897e-05,-2.93054e-06
1471,0.00051179,0.00814341,0.00712856,-0.0169308,0.0347868,0.0347868,0.0347868,0.0347868,0.0347868,0.0347868,0.0347868,0.0347868,0.0347868,-0.965213,0.14587,-0.602726,1.14725,0.00814341,0.00712856,-0.0169308,-0.0035345,0.000608986,0.00486565,-0.00795998,-0.000809256,0.000976155,0.0347868,-0.00272624,0.0336337,-0.00325655,0.00546974,0.000181075,-0.00575676,0.0322287,-0.0419582,0.00420044,0.00867263,-0.00488025,0.00257522,-0.0212709,-0.0032194,-0.0178732,-0.0035345,0.000608986,0.00486565,-0.00795998,-0.000809256,0.000976155,0,0,0,0,0,0,0,0,0,-0.00040593,-1.71535e-05,-9.24917e-05,-0.000311917,-0.000307703,6.6016e-05,-4.64746e-06,-2.29753e-05,0.000314943,0.000303006,-3.39198e-05,2.93399e-06
1472,0.00051179,0.00699342,0.0125434,-0.00739806,0.00584887,0.00584887,0.00584887,0.00584887,0.00584887,0.00584887,0.00584887,0.00584887,0.00584887,-0.755849,0.380039,0.713479,1.1067,0.00699342,0.0125434,-0.00739806,0.022734,0.0090736,-0.000224257,-0.00257676,0.00508226,0.0157379,0.00584887,-0.000158831,-0.00604613,0.000113197,-0.0133544,-0.000214005,0.000636388,0.0126482,-0.000733279,-0.00275998,4.841e-05,-0.00101479,0.000419547,0.000762534,-6.63102e-06,-0.00566969,0.022734,0.0090736,-0.000224257,-0.00257676,0.00508226,0.0157379,0,0,0,0,0,0,0,0,0,-0.000614211,7.48337e-05,0.000203781,-0.000253778,-0.000360155,-0.000111913,-6.47256e-05,4.30396e-05,0.000343092,0.000257899,-2.3648e-06,4.06145e-05
1473,0.00051179,-0.000283718,0.00450987,0.0292933,0.0306396,0.0306396,0.0306396,0.0306396,0.0306396,0.0306396,0.0306396,0.0306396,0.0306396,-0.78064,-0.22328,0.123667,0.821307,-0.000283718,0.00450987,0.0292933,0.00975855,-0.0163167,0.0110603,-0.0189182,-0.0051827,-0.00857662,0.0306396,0.501604,2.2107,-0.182133,-0.814798,0.687124,-0.182813,-3.42712,-2.89754,0.281944,-0.164953,0.0826364,-0.349863,0.975241,0.0736109,3.74769,0.00975855,-0.0163167,0.0110603,-0.0189182,-0.0051827,-0.00857662,0,0,0,0,0,0,0,0,0,-0.000298448,0.00158825,-0.00118876,-0.00112956,-0.000462795,-0.000795741,0.000346563,0.000471335,0.000317089,-0.000587969,0.000303203,-0.000643393
1474,0.00051179,-0.00255717,-0.00210984,0.000980729,0.0715453,0.0715453,0.0715453,0.0715453,0.0715453,0.0715453,0.0715453,0.0715453,0.0715453,-0.821545,0.46603,0.767447,1.217,-0.00255717,-0.00210984,0.000980729,0.00472137,0.000237441,0.000632953,-0.00286786,0.00474972,0.00780362,0.0715453,6.98119e-05,0.00132402,0.000352271,-0.0022998,0.000368563,0.000375923,0.00210484,0.000864589,-0.00105067,0.000826644,-0.00109165,0.000223932,0.003583,-0.000356745,-0.00330951,0.00472137,0.000237441,0.000632953,-0.00286786,0.00474972,0.00780362,0,0,0,0,0,0,0,0,0,-0.000612013,1.43564e-05,0.000227842,-0.000295344,-0.000349397,-0.000221945,-2.91921e-05,4.29451e-05,0.000326805,0.000305433,-6.36449e-06,2.76349e-05
1475,0.00051179,-0.0181615,-0.0350466,-0.000447929,0.0572468,0.0572468,0.0572468,0.0572468,0.0572468,0.0572468,0.0572468,0.0572468,0.0572468,-0.942753,-0.387932,0.0970788,1.02406,-0.0181615,-0.0350466,-0.000447929,0.0013871,-0.004373,-0.00272081,0.0103348,-0.0140563,0.0133599,0.0572468,0.375335,2.25696,-0.0308883,-0.693317,-0.168569,0.0563786,0.138541,-2.07023,0.0907419,0.0460832,-0.0263221,-0.0691335,0.68228,-0.075803,-0.0689593,0.0013871,-0.004373,-0.00272081,0.0103348,-0.0140563,0.0133599,0,0,0,0,0,0,0,0,0,-0.00046929,0.00140435,-0.000259219,0.000611262,-0.000411564,-9.33939e-05,2.61273e-05,-0.000222756,0.000409372,-7.46846e-05,-0.000181029,-0.000791472
1476,0.00051179,-0.00372041,-0.00247834,0.00783339,0.0561022,0.0561022,0.0561022,0.0561022,0.0561022,0.0561022,0.0561022,0.0561022,0.0561022,-0.943898,0.513163,0.578104,1.22003,-0.00372041,-0.00247834,0.00783339,0.000835021,0.000178177,-0.00284377,0.00491177,-0.00528956,0.0022413,0.0561022,0.00537969,-0.0584837,-0.00196355,0.0141342,-0.00286538,-0.00676806,0.0497407,0.0650695,0.00468348,-0.023173,-0.000800167,-0.000914003,0.0115172,0.00830046,-0.0566601,0.000835021,0.000178177,-0.00284377,0.00491177,-0.00528956,0.0022413,0,0,0,0,0,0,0,0,0,-0.000543334,6.67718e-07,0.000313114,-0.000307365,-0.000321681,-0.000330968,1.75704e-05,-1.30442e-05,0.000285141,0.000211247,-4.7853e-05,2.2303e-05
1477,0.00051179,0.0100309,-0.0242465,-0.0162148,0.0640083,0.0640083,0.0640083,0.0640083,0.0640083,0.0640083,0.0640083,0.0640083,0.0640083,-0.935992,0.306163,-0.182393,1.00154,0.0100309,-0.0242465,-0.0162148,-0.00336922,0.0163152,0.00537459,-0.00146237,0.0202799,-0.00747506,0.0640083,-0.271073,-0.731777,-0.0849141,-0.125955,-0.0856453,-0.0785018,-0.710763,0.807391,-0.0546712,-0.0817209,-0.024322,-0.0344221,0.231922,0.0318747,0.7614,-0.00336922,0.0163152,0.00537459,-0.00146237,0.0202799,-0.00747506,0,0,0,0,0,0,0,0,0,-0.000628136,-0.00101893,-0.000358398,-0.00046876,-0.000331635,-0.000327591,7.26118e-05,-2.29835e-05,0.000335075,-0.000262512,-1.74384e-05,0.000475278
1478,0.00051179,0.0010639,0.0109943,-0.00521139,0.0267328,0.0267328,0.0267328,0.0267328,0.0267328,0.0267328,0.0267328,0.0267328,0.0267328,-0.776733,0.404597,-0.726631,1.13798,0.0010639,0.0109943,-0.00521139,-0.0081932,-0.00511391,0.000889793,0.00926417,0.00527193,-0.00255714,0.0267328,0.000549629,0.00124312,-0.00054919,0.0083422,0.000505065,5.11408e-05,0.0136729,-0.00281209,0.00560392,-0.00830015,-0.00155555,0.000824421,-0.0110363,0.00098484,-0.00928589,-0.0081932,-0.00511391,0.000889793,0.00926417,0.00527193,-0.00255714,0,0,0,0,0,0,0,0,0,-0.000411659,-4.47397e-05,-0.000219203,-0.000367257,-0.000276143,0.000162572,6.78187e-05,7.87782e-05,0.000366554,0.000376666,-4.16145e-05,-1.43833e-05
1479,0.00051179,0.0179935,0.0115072,-0.0083474,0.00347365,0.00347365,0.00347365,0.00347365,0.00347365,0.00347365,0.00347365,0.00347365,0.00347365,-0.753474,0.0890705,-0.851924,1.1408,0.0179935,0.0115072,-0.0083474,-0.00119674,-0.00291883,-0.000443969,0.00976493,-0.000569254,-0.00354657,0.00347365,0.000151411,-0.0137998,-0.00045263,0.00241227,0.000388267,0.000453304,-0.000756492,-0.00458197,0.00580163,-0.00621445,-0.000783646,0.000481903,-0.00770501,0.00190178,0.00862199,-0.00119674,-0.00291883,-0.000443969,0.00976493,-0.000569254,-0.00354657,0,0,0,0,0,0,0,0,0,-0.000329114,-2.00841e-05,-4.99089e-05,-0.000305525,-0.000299061,1.61943e-05,6.29754e-05,1.15472e-05,0.000386424,0.000305619,-2.50762e-05,-2.30814e-05
1480,0.00051179,-0.0166343,-0.0121535,0.0539108,0.0251916,0.0251916,0.0251916,0.0251916,0.0251916,0.0251916,0.0251916,0.0251916,0.0251916,-0.775192,-0.690103,0.381726,1.10584,-0.0166343,-0.0121535,0.0539108,0.00485327,0.00110075,0.0158193,-0.0293171,-0.0249395,-0.0139758,0.0251916,0.000549927,-0.0239566,0.00147033,-0.0373044,0.000686916,-0.0026577,0.126696,0.039904,-0.0213856,-0.0364169,-0.00539725,0.0217725,0.0858748,0.0175783,-0.20238,0.00485327,0.00110075,0.0158193,-0.0293171,-0.0249395,-0.0139758,0,0,0,0,0,0,0,0,0,-0.000387676,7.51279e-05,-0.000543942,-0.000471161,-0.000263358,0.000569652,-0.000205402,-0.000189181,0.000355452,0.000602777,-0.000114186,6.61245e-05
1481,0.00051179,0.00593297,0.00448517,0.000570619,0.0661337,0.0661337,0.0661337,0.0661337,0.0661337,0.0661337,0.0661337,0.0661337,0.0661337,-0.933866,-0.157942,0.657851,1.15318,0.00593297,0.00448517,0.000570619,-0.00333607,-0.000473599,0.000464244,0.00760486,0.000727379,0.000984976,0.0661337,0.00193639,-0.0197906,-0.000203602,0.00955179,-0.000656457,-0.00259303,0.0298759,0.0145141,0.00330858,0.00127699,-0.000154767,0.000400981,-0.0153139,0.00462504,-0.0308475,-0.00333607,-0.000473599,0.000464244,0.00760486,0.000727379,0.000984976,0,0,0,0,0,0,0,0,0,-0.000630341,-2.44489e-05,-0.000105707,-0.000207001,-0.000344181,9.89354e-05,3.71167e-05,3.12828e-05,0.000310227,0.000185713,-2.55567e-05,1.05996e-05
1482,0.00051179,0.00301924,0.00608645,-0.0166041,0.0821992,0.0821992,0.0821992,0.0821992,0.0821992,0.0821992,0.0821992,0.0821992,0.0821992,-0.917801,0.085562,0.307189,0.97162,0.00301924,0.00608645,-0.0166041,0.00556316,-0.000881209,0.00175611,-0.00328684,0.00303645,0.0104378,0.0821992,0.0282539,-0.129032,0.00925738,-0.088265,0.0365914,-0.0275336,-0.0862706,0.089421,0.0590781,-0.0446655,-0.0114582,-0.0753237,0.126844,0.0136549,0.178198,0.00556316,-0.000881209,0.00175611,-0.00328684,0.00303645,0.0104378,0,0,0,0,0,0,0,0,0,-0.000543021,3.78919e-05,8.74245e-05,-0.00038789,-0.000334168,-3.66273e-06,0.000147763,-4.22765e-05,0.000297874,0.000130115,-4.19408e-05,-1.073e-05
1483,0.00051179,-0.00653791,0.000737412,-0.023238,0.01674,0.01674,0.01674,0.01674,0.01674,0.01674,0.01674,0.01674,0.01674,-0.98326,-0.16002,-0.736714,1.23901,-0.00653791,0.000737412,-0.023238,-0.00218889,0.00463796,0.00362359,-0.0116724,-0.00135151,0.000532755,0.01674,-0.00313352,0.0357699,-0.00292801,0.0158571,-0.000794623,-0.0018164,0.0241029,-0.0284374,-3.6763e-05,0.00112912,-0.00262108,-0.000700916,-0.0177236,-0.00219679,-0.000164018,-0.00218889,0.00463796,0.00362359,-0.0116724,-0.00135151,0.000532755,0,0,0,0,0,0,0,0,0,-0.000363357,-5.04024e-06,8.97915e-05,-0.000317748,-0.000299299,-7.26919e-05,-3.69738e-05,-3.34502e-05,0.000315189,0.00033582,-6.27574e-06,1.32516e-05
1484,0.00051179,-0.00612307,-0.0013668,-0.00527406,0.0743438,0.0743438,0.0743438,0.0743438,0.0743438,0.0743438,0.0743438,0.0743438,0.0743438,-0.925656,-0.566064,0.394906,1.15465,-0.00612307,-0.0013668,-0.00527406,0.00114439,0.00168896,0.00171775,0.00389811,0.00394611,-0.00285078,0.0743438,0.0308968,-0.316706,0.00211782,-0.02063,-0.0442013,-0.0335457,0.135996,0.36703,-0.00149758,0.0666882,0.00446015,0.079349,-0.0446913,0.0287218,-0.210071,0.00114439,0.00168896,0.00171775,0.00389811,0.00394611,-0.00285078,0,0,0,0,0,0,0,0,0,-0.000460692,9.06143e-05,-0.000433156,-0.000322698,-0.00036105,0.000471223,-5.75891e-05,7.20529e-05,0.000308543,4.41883e-06,1.20097e-05,5.97637e-05
1485,0.00051179,2.68989e-06,-0.00151806,0.00356696,0.0757104,0.0757104,0.0757104,0.0757104,0.0757104,0.0757104,0.0757104,0.0757104,0.0757104,-0.82571,-0.674629,0.917935,1.40696,2.68989e-06,-0.00151806,0.00356696,-0.00102582,0.00125843,-0.00134957,-6.90343e-07,-0.00259854,0.00460963,0.0757104,0.00101872,-0.000748249,-0.000220649,-0.00211358,0.00020195,0.00047097,-0.000620981,0.00054361,-0.000967579,-0.000233883,-0.000511566,0.0004813,0.00386552,-0.000954378,-0.00342728,-0.00102582,0.00125843,-0.00134957,-6.90343e-07,-0.00259854,0.00460963,0,0,0,0,0,0,0,0,0,-0.000592284,-3.12768e-06,-0.000274099,-0.00038259,-0.000323618,0.000284477,-7.93351e-06,-2.21255e-05,0.000350587,0.000373804,-8.97556e-06,1.51841e-05
1486,0.00051179,-0.0393874,-0.0962433,-0.0448514,0.00482225,0.00482225,0.00482225,0.00482225,0.00482225,0.00482225,0.00482225,0.00482225,0.00482225,-0.860522,-0.995178,-0.292554,1.34776,-0.0393874,-0.0962433,-0.0448514,-0.017717,-0.000492595,-0.0702677,-0.0154811,-0.000872929,-0.0569896,0.00482225,0.00296997,0.172832,-0.00181969,0.0375218,-0.288083,0.059417,-0.277185,0.154639,-0.000843244,0.10711,-0.00421784,-0.480085,-0.0483888,0.109396,0.802122,-0.017717,-0.000492595,-0.0702677,-0.0154811,-0.000872929,-0.0569896,0,0,0,0,0,0,0,0,0,-0.000919111,-9.83523e-05,0.000796169,-0.00102104,-0.000440562,-0.000819292,-0.000106239,-0.000672514,0.000293694,0.000912536,0.000621607,0.000237415
1487,0.00051179,0.00296688,0.0121656,0.00646394,0.0384799,0.0384799,0.0384799,0.0384799,0.0384799,0.0384799,0.0384799,0.0384799,0.0384799,-0.96152,0.485107,0.223034,1.09982,0.00296688,0.0121656,0.00646394,0.00296701,-0.00428557,0.0231688,0.0234982,0.00467758,-0.00637887,0.0384799,0.29149,0.592814,0.0129957,0.18515,-0.225863,-0.108392,-0.827587,-0.369918,0.0582405,-0.166418,-0.0248351,0.0592553,-0.0308976,-0.00461197,0.761868,0.00296701,-0.00428557,0.0231688,0.0234982,0.00467758,-0.00637887,0,0,0,0,0,0,0,0,0,-0.000438169,0.00105089,0.000367456,-0.000212169,-0.000281716,-0.000280355,-1.26964e-05,-0.00017354,0.000310436,-0.000640063,-2.80351e-05,-0.000476344
1488,0.00051179,-0.00725445,0.0033162,0.00523158,0.0726216,0.0726216,0.0726216,0.0726216,0.0726216,0.0726216,0.0726216,0.0726216,0.0726216,-0.927378,0.805824,0.466533,1.31417,-0.00725445,0.0033162,0.00523158,-0.00163759,-0.00012273,-0.00220898,0.00348428,-0.0082548,0.00583927,0.0726216,0.00494762,-0.0511894,-0.00631993,0.0309702,0.00739796,-0.00688868,0.0424747,0.0510459,-0.00382792,0.0322846,0.00451404,0.00445272,-0.066571,0.00702528,-0.052159,-0.00163759,-0.00012273,-0.00220898,0.00348428,-0.0082548,0.00583927,0,0,0,0,0,0,0,0,0,-0.000376873,-1.71634e-06,0.000526642,-0.000520998,-0.000331784,-0.000591068,-1.99847e-05,5.96893e-05,0.00026603,0.000430022,-9.70968e-05,4.60563e-05
1489,0.00051179,0.011269,-0.00442795,-0.00602764,0.00320703,0.00320703,0.00320703,0.00320703,0.00320703,0.00320703,0.00320703,0.00320703,0.00320703,-0.753207,0.93397,-0.751303,1.41565,0.011269,-0.00442795,-0.00602764,-0.0168618,0.00700884,0.00210612,-0.00481395,0.00500002,0.00342054,0.00320703,0.000775889,-0.0132178,-0.000173144,0.0226026,0.000105408,0.000422589,0.00646864,0.00184338,0.00166036,-0.0091818,-9.29721e-05,0.00488197,-0.0089928,0.00225044,-0.00532297,-0.0168618,0.00700884,0.00210612,-0.00481395,0.00500002,0.00342054,0,0,0,0,0,0,0,0,0,-0.000565998,-6.47737e-05,-0.000364,-0.000624609,-0.00025391,0.000432357,-1.11919e-07,0.00017218,0.000344761,0.000649896,-0.00012311,4.4011e-05
1490,0.00051179,0.0019343,-0.000771941,-0.00357093,0.124984,0.124984,0.124984,0.124984,0.124984,0.124984,0.124984,0.124984,0.124984,-0.875017,-0.780635,-0.836429,1.44037,0.0019343,-0.000771941,-0.00357093,-0.00304017,0.0030884,0.00294792,-0.00371527,0.0010693,0.000563376,0.124984,0.000710681,-0.0010275,-0.000866733,0.00388686,-0.000177191,0.000821382,-0.00616267,-0.000729613,-0.00122425,-0.000860776,-0.000201909,0.00188536,-0.00225414,-0.0002914,0.00784823,-0.00304017,0.0030884,0.00294792,-0.00371527,0.0010693,0.000563376,0,0,0,0,0,0,0,0,0,-0.000475839,-3.57395e-06,0.000321007,-0.000458407,-0.00030061,-0.00029879,-1.66241e-05,-0.000115354,0.000316411,0.0004961,0.000124028,9.43339e-06
1491,0.00051179,0.00406158,0.0142255,-0.00786945,0.106294,0.106294,0.106294,0.106294,0.106294,0.106294,0.106294,0.106294,0.106294,-0.893706,0.660457,0.415851,1.18653,0.00406158,0.0142255,-0.00786945,-0.00237481,0.000651192,0.00016154,0.000953369,0.000154371,0.0056771,0.106294,0.0128666,-0.194387,-0.00464439,0.0127376,-0.0396718,-0.0206023,0.146271,0.229997,-0.0120593,-0.0142304,0.00224973,0.0694914,-0.0127327,0.02259,-0.207893,-0.00237481,0.000651192,0.00016154,0.000953369,0.000154371,0.0056771,0,0,0,0,0,0,0,0,0,-0.000425212,2.05519e-05,0.000466606,-0.000446137,-0.00034597,-0.000506538,-8.7437e-05,4.02534e-05,0.000281505,0.00024173,-1.62124e-05,0.000109428
1492,0.00051179,-0.00648677,-0.00182239,-0.00635639,0.028309,0.028309,0.028309,0.028309,0.028309,0.028309,0.028309,0.028309,0.028309,-0.971691,-0.494532,-0.794812,1.34925,-0.00648677,-0.00182239,-0.00635639,-0.00175138,0.00257067,0.000583906,-0.010118,0.00339181,0.0044778,0.028309,-0.00183849,0.0260874,-0.00187122,0.0108813,-0.000906328,8.47131e-06,0.00901558,-0.0186943,-0.00162466,0.0013288,-0.000776358,-0.00360241,-0.0103877,-0.0021841,0.000943224,-0.00175138,0.00257067,0.000583906,-0.010118,0.00339181,0.0044778,0,0,0,0,0,0,0,0,0,-0.000405699,-2.90457e-06,0.000262944,-0.000357487,-0.000284189,-0.000255949,-4.36684e-05,-5.59203e-05,0.000306115,0.000363411,8.20749e-05,2.65133e-05
1493,0.00051179,0.00292873,0.0236359,0.145028,0.00575264,0.00575264,0.00575264,0.00575264,0.00575264,0.00575264,0.00575264,0.00575264,0.00575264,-0.702246,-0.238326,-0.105753,0.749088,0.00292873,0.0236359,0.145028,-0.330474,0.253731,-0.388866,0.0394907,0.0193577,-0.00623709,0.00575264,-1.02471,5.30162,0.403398,0.297691,-1.43779,-0.43061,3.37757,-3.86676,-0.7302,1.01385,0.151376,-0.532717,-1.33518,-0.262826,-2.98988,-0.330474,0.253731,-0.388866,0.0394907,0.0193577,-0.00623709,0,0,0,0,0,0,0,0,0,-0.00104616,-0.00410481,0.00284795,-0.00214114,-7.38446e-05,0.00372333,-0.000782443,8.87791e-05,0.000157595,-0.00605362,0.00161855,0.00132579
1494,0.00051179,-0.0851355,0.0135979,0.0355792,0.0569567,0.0569567,0.0569567,0.0569567,0.0569567,0.0569567,0.0569567,0.0569567,0.0569567,-0.806957,0.584409,0.107959,1.00218,-0.0851355,0.0135979,0.0355792,-0.00105706,-0.0103562,0.0398289,0.0389778,-0.0111817,0.0211246,0.0569567,1.47911,13.9998,0.0785946,0.916664,-1.15895,-0.182093,-6.89202,-12.7557,0.203679,-0.425148,-0.0411555,0.165608,-0.505114,-0.0798003,6.69084,-0.00105706,-0.0103562,0.0398289,0.0389778,-0.0111817,0.0211246,0,0,0,0,0,0,0,0,0,6.33523e-05,0.00547252,0.000589662,0.000592225,-0.000308866,9.27216e-05,-0.000704445,-0.000557155,0.000266492,-0.00201487,3.37834e-05,-0.00221111
1495,0.00051179,-0.0322553,-0.0218662,-0.00336766,0.00557429,0.00557429,0.00557429,0.00557429,0.00557429,0.00557429,0.00557429,0.00557429,0.00557429,-0.994426,0.214654,0.186138,1.03422,-0.0322553,-0.0218662,-0.00336766,0.0220968,-0.0170589,0.00460794,0.00468136,0.0207745,0.0229272,0.00557429,0.125871,0.37807,0.0382505,0.171212,0.0615232,-0.010968,-0.172723,-0.407338,0.0857746,-0.0363573,-0.0123781,-0.0359425,-0.112988,-0.0342147,0.212033,0.0220968,-0.0170589,0.00460794,0.00468136,0.0207745,0.0229272,0,0,0,0,0,0,0,0,0,-0.000517845,0.00047776,7.74148e-05,-3.3249e-05,-0.000306809,0.000134501,0.000190199,-2.61347e-05,0.000322312,-3.03511e-05,0.000110099,-0.000318518
1496,0.00051179,6.01616e-05,-0.00107065,0.00358839,0.0151679,0.0151679,0.0151679,0.0151679,0.0151679,0.0151679,0.0151679,0.0151679,0.0151679,-0.984832,-0.432183,0.787592,1.33303,6.01616e-05,-0.00107065,0.00358839,0.00351545,-0.00208309,-0.00151885,0.0149132,0.00447207,0.00254069,0.0151679,0.00145228,-0.019353,0.0008936,-0.0043371,-0.00100344,-0.00182739,0.0357577,0.0202962,0.00128408,0.00266344,-0.000683776,0.00101319,0.00274431,0.00123001,-0.0403593,0.00351545,-0.00208309,-0.00151885,0.0149132,0.00447207,0.00254069,0,0,0,0,0,0,0,0,0,-0.000612222,-3.93328e-06,-0.000233162,-0.000261541,-0.000360424,0.000221267,5.22143e-05,2.97016e-05,0.000303216,0.000228079,8.18136e-06,-9.91846e-06
1497,0.00051179,-0.000775258,-0.00168177,0.000973403,0.0464853,0.0464853,0.0464853,0.0464853,0.0464853,0.0464853,0.0464853,0.0464853,0.0464853,-0.796485,-0.0641567,-0.620593,1.01175,-0.000775258,-0.00168177,0.000973403,-0.0109719,0.00117476,0.00300157,0.00294582,-0.00160497,-0.000384682,0.0464853,0.000759915,0.00161846,-0.00105195,0.0130606,0.000395805,-0.000643808,0.0238226,-0.001239,0.015229,0.00759378,-0.00380685,0.00103177,-0.0189726,-0.000734042,-0.0258278,-0.0109719,0.00117476,0.00300157,0.00294582,-0.00160497,-0.000384682,0,0,0,0,0,0,0,0,0,-0.000398807,-5.8957e-05,3.38827e-05,-0.000317043,-0.000313187,-3.26546e-05,8.29771e-05,-4.03348e-05,0.000372127,0.00034062,-1.37834e-05,-1.34907e-05
1498,0.00051179,0.000869077,0.00418959,-0.00120454,0.0528951,0.0528951,0.0528951,0.0528951,0.0528951,0.0528951,0.0528951,0.0528951,0.0528951,-0.802895,-0.408771,0.62304,1.09541,0.000869077,0.00418959,-0.00120454,-0.00127564,0.000718089,0.00150228,-0.00828309,-0.00375237,0.00536896,0.0528951,0.000509992,-0.007856,0.000298448,0.00220239,-0.000461678,-0.000118624,0.0109841,0.0074486,-0.00374948,-0.00561629,-0.00081932,0.00015542,-0.000775696,0.000413362,-0.00993498,-0.00127564,0.000718089,0.00150228,-0.00828309,-0.00375237,0.00536896,0,0,0,0,0,0,0,0,0,-0.000577845,4.26703e-06,-0.000260267,-0.000236146,-0.000317777,0.000270432,-5.20676e-05,-9.87997e-06,0.000344381,0.000249983,-3.58369e-05,3.70069e-05
1499,0.00051179,-0.0592908,-0.0216154,0.0217944,0.0236463,0.0236463,0.0236463,0.0236463,0.0236463,0.0236463,0.0236463,0.0236463,0.0236463,-0.976354,-0.303896,0.112291,1.0287,-0.0592908,-0.0216154,0.0217944,-0.0101466,-0.00132836,0.00619066,0.00615767,-0.0211386,0.0325746,0.0236463,0.246108,1.35442,-0.0237291,-0.523661,-0.0375851,0.0295288,-0.0168732,-1.25754,0.0895498,0.0210521,-0.019819,-0.0169125,0.524224,-0.0509669,0.0119913,-0.0101466,-0.00132836,0.00619066,0.00615767,-0.0211386,0.0325746,0,0,0,0,0,0,0,0,0,-0.000515595,0.000818334,-0.000114094,0.000271244,-0.000404203,-0.000136481,0.000117064,-0.000173184,0.000382148,8.59501e-05,-0.000236391,-0.000453434
1500,0.00051179,-0.00161222,-0.00103514,0.00466914,0.104394,0.104394,0.104394,0.104394,0.104394,0.104394,0.104394,0.104394,0.104394,-0.895606,0.533171,-0.446196,1.13379,-0.00161222,-0.00103514,0.00466914,-0.00458508,-0.00123939,-0.000912361,0.00109516,-0.0017247,-0.00520358,0.104394,-0.0119828,0.206937,0.00163651,-0.0116896,0.00636825,-0.0162593,0.164921,-0.211693,0.015459,0.0176098,-0.000714319,0.0382238,-0.00488511,-0.0168333,-0.207814,-0.00458508,-0.00123939,-0.000912361,0.00109516,-0.0017247,-0.00520358,0,0,0,0,0,0,0,0,0,-0.000553042,-5.73964e-05,-0.000395205,-0.000449896,-0.000280315,0.000399177,0.000108214,5.51462e-05,0.000304513,0.000278179,-7.95364e-05,-8.47416e-05
1501,0.00051179,0.000538081,0.0025153,0.000742424,0.0686381,0.0686381,0.0686381,0.0686381,0.0686381,0.0686381,0.0686381,0.0686381,0.0686381,-0.931362,-0.41889,-0.572039,1.17053,0.000538081,0.0025153,0.000742424,-0.00468651,0.00289573,-0.00129248,-0.00864281,0.00188088,0.000762024,0.0686381,-0.00302969,0.0541186,-0.00237798,0.0133644,0.000563668,-0.00628075,0.0432532,-0.0552203,0.00543482,0.00401512,-0.00438792,-0.00396259,-0.0198949,-0.0037146,-0.040033,-0.00468651,0.00289573,-0.00129248,-0.00864281,0.00188088,0.000762024,0,0,0,0,0,0,0,0,0,-0.000461958,-2.25694e-05,0.000269446,-0.00033069,-0.00030973,-0.000264268,-2.82928e-08,-6.68883e-05,0.000327647,0.000254958,4.18179e-05,1.24878e-06
1502,0.00051179,0.00570058,-0.00172356,0.0138605,0.0240332,0.0240332,0.0240332,0.0240332,0.0240332,0.0240332,0.0240332,0.0240332,0.0240332,-0.774033,-0.0528124,0.965992,1.23897,0.00570058,-0.00172356,0.0138605,0.0145899,-0.000172598,0.00340724,-0.00397257,0.00102122,0.0127429,0.0240332,0.000724211,-0.00400787,-0.000424169,-0.0014936,6.07487e-05,0.000303201,-0.00546327,-0.00175346,-0.000997784,0.000746167,1.83871e-05,2.8517e-07,0.00247099,-0.00126996,-0.00839752,0.0145899,-0.000172598,0.00340724,-0.00397257,0.00102122,0.0127429,0,0,0,0,0,0,0,0,0,-0.000708632,5.13976e-05,-4.02891e-05,-0.000235511,-0.00032928,3.43214e-05,-5.0025e-05,3.30007e-05,0.000350699,0.000272616,-2.26046e-05,3.21916e-05
1503,0.00051179,-0.0182453,-0.00373246,0.0145032,0.0723012,0.0723012,0.0723012,0.0723012,0.0723012,0.0723012,0.0723012,0.0723012,0.0723012,-0.927699,0.644856,-0.309425,1.17141,-0.0182453,-0.00373246,0.0145032,-0.00343948,-0.00533116,0.00864687,-0.00992771,-0.000140459,0.00564974,0.0723012,-0.129071,0.718861,0.00924826,-0.0270893,0.0924512,-0.0958827,-0.106316,-0.793066,0.00546406,0.0601773,0.00194383,0.131191,-0.0293556,-0.0498832,-0.0393783,-0.00343948,-0.00533116,0.00864687,-0.00992771,-0.000140459,0.00564974,0,0,0,0,0,0,0,0,0,-0.000680886,-0.000453466,-0.000540226,-0.000783256,-0.000267589,0.000579397,0.000186767,0.000128359,0.000276938,-8.91022e-05,-0.000110325,-1.2082e-05
1504,0.00051179,0.00300702,-0.00358888,-0.0032344,0.00584348,0.00584348,0.00584348,0.00584348,0.00584348,0.00584348,0.00584348,0.00584348,0.00584348,-0.94854,-0.476129,0.994157,1.45423,0.00300702,-0.00358888,-0.0032344,-0.00579648,0.00276001,-0.00278918,0.00745413,-0.000188989,0.00129824,0.00584348,0.00085254,0.00200026,-0.00036674,0.000420042,-0.000267612,0.000302877,0.000721934,-0.00473967,-0.000220181,0.00113477,8.26381e-05,0.000792646,0.00203407,-0.00168399,0.00171982,-0.00579648,0.00276001,-0.00278918,0.00745413,-0.000188989,0.00129824,0,0,0,0,0,0,0,0,0,-0.000663586,-2.69169e-05,-0.000188377,-0.000330011,-0.000352079,0.000212309,3.39725e-05,-1.04715e-05,0.000311799,0.000305148,9.40803e-06,-4.12598e-06
1505,0.00051179,-0.00300506,-0.0017137,0.0122418,0.0460126,0.0460126,0.0460126,0.0460126,0.0460126,0.0460126,0.0460126,0.0460126,0.0460126,-0.830864,-0.953987,-0.475932,1.35164,-0.00300506,-0.0017137,0.0122418,0.00333057,0.00357955,-0.00456037,-0.00212029,-0.00318887,-0.00565247,0.0460126,0.00183393,-0.0158959,-0.000900738,-0.00254666,-0.00927182,0.00176252,-0.0541204,0.0281727,0.0027215,0.0411645,-0.00258621,-0.043747,-0.0369041,0.0100583,0.0856256,0.00333057,0.00357955,-0.00456037,-0.00212029,-0.00318887,-0.00565247,0,0,0,0,0,0,0,0,0,-0.000746779,1.40861e-05,0.000531469,-0.000706372,-0.000381613,-0.000504681,-8.7304e-06,-0.000293393,0.0003189,0.000678393,0.000235643,1.02929e-05
1506,0.00051179,0.00531006,-0.00663114,0.00809634,0.0973407,0.0973407,0.0973407,0.0973407,0.0973407,0.0973407,0.0973407,0.0973407,0.0973407,-0.902659,0.354977,0.125918,0.978089,0.00531006,-0.00663114,0.00809634,0.0112825,-0.00990418,0.00244408,0.00260125,0.0184089,0.00286683,0.0973407,0.435329,2.49252,0.0876899,0.805091,-0.0783191,-0.0116643,-0.702684,-2.41951,0.113115,0.00213751,-0.0163182,-0.0330353,-0.800597,-0.0915624,0.727623,0.0112825,-0.00990418,0.00244408,0.00260125,0.0184089,0.00286683,0,0,0,0,0,0,0,0,0,-0.000398882,0.00168656,0.000484796,0.000298859,-0.000267321,0.000293061,3.2082e-05,-4.26854e-06,0.000349052,-0.000391061,2.51761e-05,-0.000989976
1507,0.00051179,-0.00418851,0.00157367,0.00466532,0.0664311,0.0664311,0.0664311,0.0664311,0.0664311,0.0664311,0.0664311,0.0664311,0.0664311,-0.933569,0.350662,0.835492,1.30098,-0.00418851,0.00157367,0.00466532,-0.00172916,-0.000616127,-0.00198654,0.00775764,-0.00200312,0.00376741,0.0664311,0.000608996,-0.00281891,0.000615664,-0.0063605,0.000473467,1.08145e-05,0.00818424,0.00653395,-0.000149386,-0.00135601,-0.000751611,-0.000190081,0.00614284,-0.000765923,-0.0126595,-0.00172916,-0.000616127,-0.00198654,0.00775764,-0.00200312,0.00376741,0,0,0,0,0,0,0,0,0,-0.000653364,-1.65504e-05,0.000154473,-0.000284273,-0.000326717,-0.000154477,2.70918e-05,9.57679e-06,0.000297807,0.000264515,-3.71241e-05,4.05793e-06
1508,0.00051179,-0.138729,-0.0166922,0.0286951,0.00158304,0.00158304,0.00158304,0.00158304,0.00158304,0.00158304,0.00158304,0.00158304,0.00158304,-0.748417,-0.441081,-0.0600247,0.870795,-0.138729,-0.0166922,0.0286951,0.0738665,-0.0455456,0.0836223,0.0250135,-0.0185793,0.0295981,0.00158304,-1.59318,-14.9205,0.378384,4.29332,0.721453,0.29173,-2.51281,14.3378,-0.421154,0.328893,-0.108239,-0.45033,-4.60552,-0.17725,2.93444,0.0738665,-0.0455456,0.0836223,0.0250135,-0.0185793,0.0295981,0,0,0,0,0,0,0,0,0,-0.00117377,-0.00521606,0.00164118,0.00791421,-0.000223601,0.0016872,0.000399802,-0.00158821,0.000266522,-0.00416068,0.000320027,0.00164225
1509,0.00051179,-0.00468329,-0.000529076,-0.00168945,0.0621325,0.0621325,0.0621325,0.0621325,0.0621325,0.0621325,0.0621325,0.0621325,0.0621325,-0.916561,-0.259022,-0.937867,1.3367,-0.00468329,-0.000529076,-0.00168945,-0.00705512,0.000223443,0.0033169,-0.00933552,-0.00116218,-0.00178194,0.0621325,0.00133796,-0.00216029,-0.000602357,0.00325921,0.000131376,0.00105695,-0.000735338,0.00671221,-0.00163418,-0.000250074,1.39605e-06,-9.32562e-05,-0.00248005,-0.00152747,0.00251805,-0.00705512,0.000223443,0.0033169,-0.00933552,-0.00116218,-0.00178194,0,0,0,0,0,0,0,0,0,-0.000313036,-5.51319e-06,0.000134308,-0.000316063,-0.000296468,-0.000138097,-3.17759e-05,-2.73026e-05,0.000334911,0.000359802,1.56948e-05,6.52558e-06
1510,0.00051179,-0.0324783,-0.0418961,0.163821,0.0381254,0.0381254,0.0381254,0.0381254,0.0381254,0.0381254,0.0381254,0.0381254,0.0381254,-0.701534,-0.961875,-0.0402941,1.19121,-0.0324783,-0.0418961,0.163821,0.0216711,-0.0487314,0.239327,-0.0352271,0.0471948,0.00883192,0.0381254,-1.99812,-14.5572,-0.172634,-0.745291,-3.78723,1.73694,-4.08221,18.3769,-0.021012,-0.760552,0.0731456,1.37912,1.54774,-0.060569,2.53928,0.0216711,-0.0487314,0.239327,-0.0352271,0.0471948,0.00883192,0,0,0,0,0,0,0,0,0,-0.00148871,-0.00747715,0.00234681,0.0194698,-0.000881935,-0.00456046,0.00212391,0.0116072,0.00118943,0.000292843,-0.0104038,0.00214642
1511,0.00051179,-0.00331879,0.00116798,-0.0106424,0.051941,0.051941,0.051941,0.051941,0.051941,0.051941,0.051941,0.051941,0.051941,-0.948059,-0.647481,0.393489,1.21362,-0.00331879,0.00116798,-0.0106424,0.00182504,0.00191303,0.000990686,0.00728725,0.0104349,-0.00717316,0.051941,0.035157,-0.265987,0.0073368,-0.0568552,-0.0562264,-0.0317262,0.0708499,0.325532,-0.000372218,0.0337084,-0.00219429,0.0846142,0.0219788,0.0233672,-0.144822,0.00182504,0.00191303,0.000990686,0.00728725,0.0104349,-0.00717316,0,0,0,0,0,0,0,0,0,-0.000424482,0.000115575,-0.000504958,-0.000301993,-0.000369096,0.000597456,-3.47607e-05,3.06524e-05,0.000306286,-5.36227e-06,5.17537e-05,1.16341e-05
1512,0.00051179,-0.0319809,-0.0225836,-0.0165453,0.0765764,0.0765764,0.0765764,0.0765764,0.0765764,0.0765764,0.0765764,0.0765764,0.0765764,-0.827121,0.923424,0.16052,1.25004,-0.0319809,-0.0225836,-0.0165453,0.0098923,-0.0208273,-0.00578439,-0.00534147,0.0520631,0.0066877,0.0765764,0.403255,0.818109,-0.108172,-0.406206,0.809722,-0.0490039,-3.80916,-1.59585,0.00445328,-0.00686098,0.0771799,-0.458704,0.43565,-0.227525,4.28441,0.0098923,-0.0208273,-0.00578439,-0.00534147,0.0520631,0.0066877,0,0,0,0,0,0,0,0,0,-3.90485e-05,0.00184487,0.000373397,-0.00128923,-0.000533158,-0.00166339,-0.000225312,0.000481795,0.000387624,0.000741345,0.000810635,-0.00132506
1513,0.00051179,0.0182172,0.0233568,0.00736195,0.0161557,0.0161557,0.0161557,0.0161557,0.0161557,0.0161557,0.0161557,0.0161557,0.0161557,-0.766156,-0.577181,0.297564,1.00433,0.0182172,0.0233568,0.00736195,0.0238656,0.024105,0.0347561,-0.0298517,-5.70039e-05,-0.029994,0.0161557,9.67532e-05,-0.0868025,0.00231654,-0.0904193,-0.00804026,-0.00567728,0.520881,0.0766256,-0.0451862,0.0437712,-0.00442197,0.0859927,0.0232913,0.0513049,-0.614236,0.0238656,0.024105,0.0347561,-0.0298517,-5.70039e-05,-0.029994,0,0,0,0,0,0,0,0,0,-0.000384651,0.000154156,-0.000479057,-0.00107217,-0.000279361,0.000743273,-0.000340846,7.26362e-06,0.000346109,0.00136296,-5.20534e-05,0.000140898
1514,0.00051179,-0.00129235,0.000990391,-0.000932681,0.0958531,0.0958531,0.0958531,0.0958531,0.0958531,0.0958531,0.0958531,0.0958531,0.0958531,-0.904147,-0.648368,0.772761,1.35463,-0.00129235,0.000990391,-0.000932681,0.000286471,-0.0016111,-0.000910573,0.00497461,0.00416174,0.00371972,0.0958531,0.000529066,-0.0080765,0.000564702,-0.00413392,0.000448231,-5.899e-05,0.00933613,0.00892062,-0.000707524,-0.00146761,-0.000906277,0.00101603,0.00461113,-0.000764977,-0.00941948,0.000286471,-0.0016111,-0.000910573,0.00497461,0.00416174,0.00371972,0,0,0,0,0,0,0,0,0,-0.000547707,-5.1962e-06,-0.000326937,-0.000337353,-0.000345642,0.000316473,1.20615e-05,1.2063e-05,0.000321463,0.000327657,2.04917e-05,5.49984e-06
1515,0.00051179,0.0447111,-0.0299482,0.0243879,0.0174655,0.0174655,0.0174655,0.0174655,0.0174655,0.0174655,0.0174655,0.0174655,0.0174655,-0.767465,-0.315935,0.0612016,0.832204,0.0447111,-0.0299482,0.0243879,0.000136137,0.0472753,0.0281987,-0.0347613,0.00502799,0.0137718,0.0174655,0.838502,7.61332,-0.305255,-4.0154,0.453642,0.213336,-0.496063,-8.11168,0.311366,-0.382663,-0.105626,0.0364694,4.42801,-0.0243014,0.435205,0.000136137,0.0472753,0.0281987,-0.0347613,0.00502799,0.0137718,0,0,0,0,0,0,0,0,0,-0.000212215,0.00291852,-0.00142773,0.00432697,-0.000479901,-0.00115207,0.000108353,-0.00125452,0.000343561,-0.00191162,0.000248544,-0.00132732
1516,0.00051179,0.00191784,0.0784764,0.00348759,0.015823,0.015823,0.015823,0.015823,0.015823,0.015823,0.015823,0.015823,0.015823,-0.734177,-0.542847,0.0428713,0.914077,0.00191784,0.0784764,0.00348759,0.00850105,0.00904858,0.130075,-0.00361425,-0.00791735,-0.00817609,0.015823,1.58967,12.3458,-0.203181,-2.25528,-1.25765,0.554999,-4.81879,-11.0901,0.391885,0.0435874,-0.119977,-0.974292,2.13321,0.221913,5.7896,0.00850105,0.00904858,0.130075,-0.00361425,-0.00791735,-0.00817609,0,0,0,0,0,0,0,0,0,7.99075e-05,0.00545217,-0.000930785,0.013555,-0.000435883,-0.00101053,-0.000597309,-0.00131143,0.000188641,-0.0067043,3.2485e-05,-0.00146998
1517,0.00051179,0.13188,-0.0692979,0.0280466,0.022352,0.022352,0.022352,0.022352,0.022352,0.022352,0.022352,0.022352,0.022352,-0.772352,-0.443965,-0.115351,0.898297,0.13188,-0.0692979,0.0280466,0.0484956,-0.0099115,0.127922,-0.0523852,0.00773029,0.032627,0.022352,-1.52606,-11.7246,0.290095,1.47731,0.651478,-0.53465,-10.5492,10.9412,-0.348568,-0.0160154,0.109384,0.204717,-1.392,-0.314064,10.3165,0.0484956,-0.0099115,0.127922,-0.0523852,0.00773029,0.032627,0,0,0,0,0,0,0,0,0,-0.00120474,-0.00489558,0.00168066,-0.00190397,-0.000250692,0.00112117,0.000487494,0.000838527,0.000246853,-0.00216331,0.000332611,0.00108507
1518,0.00051179,-0.0179409,-0.0133369,-0.0202015,0.0264423,0.0264423,0.0264423,0.0264423,0.0264423,0.0264423,0.0264423,0.0264423,0.0264423,-0.973558,-0.0704536,-0.421968,1.06341,-0.0179409,-0.0133369,-0.0202015,-0.00114041,6.31286e-05,-0.0023451,0.0111451,-0.00905937,0.00165362,0.0264423,-0.0154301,0.0577149,0.00306708,-0.0475891,-0.00612016,-0.0187329,0.00701977,-0.0336538,-0.0261092,0.00751294,-0.000224109,-0.00888894,0.053413,-0.00854638,0.0220707,-0.00114041,6.31286e-05,-0.0023451,0.0111451,-0.00905937,0.00165362,0,0,0,0,0,0,0,0,0,-0.000464194,-3.85134e-05,3.72997e-05,-0.000398675,-0.000315154,-5.99759e-06,-3.04813e-05,-6.31525e-05,0.000318706,0.000187895,-2.96823e-05,9.87556e-06
1519,0.00051179,0.00719755,-0.0004152,-0.00442188,0.04161,0.04161,0.04161,0.04161,0.04161,0.04161,0.04161,0.04161,0.04161,-0.79161,0.936465,0.525092,1.33392,0.00719755,-0.0004152,-0.00442188,0.00818626,-0.00495886,0.00707028,0.00807698,0.0112118,-0.00437374,0.04161,0.0011626,-0.00477278,-0.000643305,-0.000784891,0.00219963,-0.000211108,-0.0174023,-0.00462441,-0.00398232,0.0282293,0.00133942,-0.00474739,-0.0270292,-0.00114026,0.0265716,0.00818626,-0.00495886,0.00707028,0.00807698,0.0112118,-0.00437374,0,0,0,0,0,0,0,0,0,-0.000345223,3.75949e-05,0.000450903,-0.000612802,-0.000398153,-0.000506925,1.13239e-05,0.000189277,0.00033623,0.000681394,-6.37643e-05,-3.67195e-05
1520,0.00051179,-0.312102,-0.0124761,0.129109,0.00563952,0.00563952,0.00563952,0.00563952,0.00563952,0.00563952,0.00563952,0.00563952,0.00563952,-0.744361,0.403984,0.123095,0.85582,-0.312102,-0.0124761,0.129109,0.130843,0.163102,-0.0925708,0.113861,-0.053619,0.0315334,0.00563952,1.27984,-4.82721,0.229997,-1.41994,-0.559475,-0.749861,-5.27011,5.69879,0.415385,0.0708172,-0.143172,0.386152,1.3616,0.628784,4.75485,0.130843,0.163102,-0.0925708,0.113861,-0.053619,0.0315334,0,0,0,0,0,0,0,0,0,0.000116877,0.00405313,0.00205913,-0.00527539,-0.000163311,0.00187186,-0.000354053,-0.00133208,0.000144571,-0.00314893,-0.000635832,0.000301303
1521,0.00051179,0.052497,-0.00804901,-0.0309015,0.0352746,0.0352746,0.0352746,0.0352746,0.0352746,0.0352746,0.0352746,0.0352746,0.0352746,-0.785275,-0.900049,0.267822,1.22412,0.052497,-0.00804901,-0.0309015,0.00509096,-0.00921539,0.0140504,-0.025843,-0.0609676,-0.0338186,0.0352746,0.00549717,-0.246005,0.00567002,-0.226979,0.0415326,-0.0020816,-0.0142547,0.151975,-0.0162294,-0.224313,-0.0356082,-0.149452,0.459341,-0.0397805,0.194609,0.00509096,-0.00921539,0.0140504,-0.025843,-0.0609676,-0.0338186,0,0,0,0,0,0,0,0,0,-0.000172213,0.000174191,-0.000667266,-0.00103584,-0.000183219,0.000631812,-8.91119e-05,-0.000653054,0.000398725,0.00115553,-0.000312704,-0.000246746
1522,0.00051179,-0.00419877,-0.000597115,0.00753864,0.0499978,0.0499978,0.0499978,0.0499978,0.0499978,0.0499978,0.0499978,0.0499978,0.0499978,-0.799998,0.596085,0.575264,1.15163,-0.00419877,-0.000597115,0.00753864,-0.00275979,-0.00157116,-0.000645179,-0.00988043,0.0100568,0.00640092,0.0499978,0.000391915,-0.0138017,6.96257e-05,0.00687051,-0.000183784,-0.000557173,0.0235591,0.0181842,-0.00633837,0.00760886,-0.000433468,0.00246757,-0.0138823,0.00128436,-0.0335653,-0.00275979,-0.00157116,-0.000645179,-0.00988043,0.0100568,0.00640092,0,0,0,0,0,0,0,0,0,-0.000515699,7.39178e-07,0.000356008,-0.00034757,-0.000374043,-0.000371024,-6.85155e-05,8.21684e-05,0.00032533,0.000335546,1.40651e-05,5.1005e-05
1523,0.00051179,0.0117539,0.0118831,-0.00745825,0.0143503,0.0143503,0.0143503,0.0143503,0.0143503,0.0143503,0.0143503,0.0143503,0.0143503,-0.76435,-0.664389,0.73165,1.24938,0.0117539,0.0118831,-0.00745825,0.00177435,-0.00303756,-0.00634668,-0.00716495,-0.00897796,0.00606118,0.0143503,-2.46614e-05,-0.0115005,0.000158735,-0.0113555,-0.000503269,0.000498369,0.00835554,0.000249827,-0.00109865,-0.000217046,-0.000827115,-4.73132e-05,-0.000310581,-0.000864487,-0.000849976,0.00177435,-0.00303756,-0.00634668,-0.00716495,-0.00897796,0.00606118,0,0,0,0,0,0,0,0,0,-0.000528276,1.02683e-05,-0.000347509,-0.000334854,-0.000298167,0.000318721,-3.97981e-05,-5.68463e-05,0.000367746,0.000276371,-4.12044e-05,2.75033e-05
1524,0.00051179,-0.0149081,0.00491875,0.00268024,0.0703195,0.0703195,0.0703195,0.0703195,0.0703195,0.0703195,0.0703195,0.0703195,0.0703195,-0.82032,0.232747,-0.259017,0.891171,-0.0149081,0.00491875,0.00268024,-0.00701753,-0.0133541,-0.0101338,-0.00549747,-0.0357782,0.00478515,0.0703195,-0.0369251,1.05284,-0.00419491,0.173261,-0.0196636,-0.0620732,0.843443,-1.01826,-0.0122566,0.174649,-0.0206824,-0.0405979,-0.352829,-0.0822412,-0.805525,-0.00701753,-0.0133541,-0.0101338,-0.00549747,-0.0357782,0.00478515,0,0,0,0,0,0,0,0,0,-0.000594556,-5.91522e-05,-0.000345886,-0.00106502,-0.000328207,0.000170396,7.17905e-05,-0.00040634,0.000326,0.000342947,-0.000158266,-0.000226719
1525,0.00051179,-0.0198463,0.00167373,-0.00340366,0.0805555,0.0805555,0.0805555,0.0805555,0.0805555,0.0805555,0.0805555,0.0805555,0.0805555,-0.919445,-0.468187,0.161723,1.04438,-0.0198463,0.00167373,-0.00340366,0.0177339,0.00208622,0.0139871,0.00501077,-0.00628286,0.00302616,0.0805555,0.466073,2.12072,-0.0328467,-0.556662,-0.314707,-0.0978845,-1.34824,-1.78617,0.0853502,0.123622,0.0208122,0.0349397,0.431367,-0.0526011,1.31671,0.0177339,0.00208622,0.0139871,0.00501077,-0.00628286,0.00302616,0,0,0,0,0,0,0,0,0,-0.000378646,0.00181374,-0.000471145,-0.000130096,-0.000407988,0.00016354,-0.000153495,0.000145853,0.000348441,-0.000708877,-5.59838e-07,-0.000853175
1526,0.00051179,0.000892551,-0.00066116,-0.00462575,0.0996397,0.0996397,0.0996397,0.0996397,0.0996397,0.0996397,0.0996397,0.0996397,0.0996397,-0.84964,-0.386493,-0.740749,1.19163,0.000892551,-0.00066116,-0.00462575,-0.00725947,0.00307759,0.00308468,0.00116844,-0.00402299,-0.00383636,0.0996397,3.10093e-05,0.0137729,-0.001109,0.00796129,-0.000932972,-0.000567656,0.00712319,-0.0137325,0.00172387,0.00338203,-0.00103846,-0.00251474,-0.0106822,0.000218596,1.73009e-05,-0.00725947,0.00307759,0.00308468,0.00116844,-0.00402299,-0.00383636,0,0,0,0,0,0,0,0,0,-0.000399612,-2.69647e-05,0.000224408,-0.000333608,-0.000316018,-0.000204722,2.36391e-05,-7.55042e-05,0.00035549,0.000358778,2.48897e-05,-8.91124e-06
1527,0.00051179,-0.0410523,-0.000937104,-0.0437164,0.0453491,0.0453491,0.0453491,0.0453491,0.0453491,0.0453491,0.0453491,0.0453491,0.0453491,-0.795349,-0.84799,-0.133939,1.1703,-0.0410523,-0.000937104,-0.0437164,0.0447646,-0.0224009,0.0300501,-0.0485054,-0.0539829,0.00285494,0.0453491,-1.05271,-5.05972,-0.20545,-0.869575,0.119455,-0.304369,-7.43071,4.98132,-0.0256758,-0.437195,-0.107097,0.159735,1.30771,0.0703434,7.31469,0.0447646,-0.0224009,0.0300501,-0.0485054,-0.0539829,0.00285494,0,0,0,0,0,0,0,0,0,-0.00120286,-0.00387558,-0.000362378,-0.00260273,-0.000618631,-0.00191613,0.000793241,-0.000398518,0.000394017,-0.000140462,-0.00121228,0.00153014
1528,0.00051179,0.00117573,-0.00164261,-0.00319268,0.0732779,0.0732779,0.0732779,0.0732779,0.0732779,0.0732779,0.0732779,0.0732779,0.0732779,-0.823278,0.840758,0.804011,1.42516,0.00117573,-0.00164261,-0.00319268,0.00508032,-0.00136225,-0.000729047,0.00260926,0.00373989,0.00550632,0.0732779,0.0003521,-0.000140256,0.000367589,-0.00197882,-0.000250992,0.000355046,0.000880274,-0.000784478,-0.000374751,0.00229707,-0.000756283,0.000533031,0.00132436,-0.00097023,0.00177938,0.00508032,-0.00136225,-0.000729047,0.00260926,0.00373989,0.00550632,0,0,0,0,0,0,0,0,0,-0.000524573,1.30817e-05,0.000301592,-0.000462494,-0.000352317,-0.000311538,-2.90785e-06,6.3252e-05,0.000320092,0.000458754,-3.34159e-05,8.60004e-06
1529,0.00051179,0.00680817,-0.0103955,0.0218406,0.000761975,0.000761975,0.000761975,0.000761975,0.000761975,0.000761975,0.000761975,0.000761975,0.000761975,-0.836026,-0.999238,-0.565469,1.42027,0.00680817,-0.0103955,0.0218406,0.0147884,0.00372329,-0.00942717,0.00242583,-0.00346956,-0.0140533,0.000761975,0.000888065,-0.0102005,-0.000411831,-0.0100701,-0.00478338,0.00113788,-0.0312868,0.00817574,0.000465883,0.0205704,0.00052926,-0.0270994,-0.00010479,0.00728225,0.0365456,0.0147884,0.00372329,-0.00942717,0.00242583,-0.00346956,-0.0140533,0,0,0,0,0,0,0,0,0,-0.000708558,6.47703e-05,0.000448223,-0.00063969,-0.00035643,-0.000415108,8.46409e-07,-0.000222883,0.000307828,0.000556797,0.00019348,-4.74672e-05
1530,0.00051179,0.00277892,-0.00406053,-0.00364891,0.0927345,0.0927345,0.0927345,0.0927345,0.0927345,0.0927345,0.0927345,0.0927345,0.0927345,-0.842735,-0.55392,0.403141,1.08607,0.00277892,-0.00406053,-0.00364891,-0.000564937,0.000651475,0.00256146,-0.00951882,0.00251674,0.0120137,0.0927345,0.00638326,-0.173907,0.0011893,-0.00256132,-0.0145794,-0.0143679,0.209785,0.185707,-0.0133333,0.0381454,6.30831e-05,0.0428315,-0.0315236,0.0219726,-0.248968,-0.000564937,0.000651475,0.00256146,-0.00951882,0.00251674,0.0120137,0,0,0,0,0,0,0,0,0,-0.000465594,9.53102e-06,-0.000431631,-0.000385303,-0.000323767,0.000450039,-0.000133821,4.45863e-05,0.000320524,0.000267239,-1.87881e-05,0.000150371
1531,0.00051179,-0.0403939,-0.055197,-0.0583852,0.0198859,0.0198859,0.0198859,0.0198859,0.0198859,0.0198859,0.0198859,0.0198859,0.0198859,-0.980114,0.976161,0.194766,1.39694,-0.0403939,-0.055197,-0.0583852,-0.00629527,-0.00653283,-0.0219265,-0.0173505,-0.0290559,-0.030664,0.0198859,0.0219786,1.16299,-0.0197683,-0.0521876,0.737514,0.215854,-0.488716,-1.86011,0.00403671,0.0596296,0.00602963,-0.136659,0.0477549,-0.0794762,0.68376,-0.00629527,-0.00653283,-0.0219265,-0.0173505,-0.0290559,-0.030664,0,0,0,0,0,0,0,0,0,-0.000139616,0.000202767,0.00148295,0.000584786,-0.000296051,-0.00174596,5.77816e-05,4.43112e-05,0.000214435,0.00135449,-0.000274574,-0.00042635
1532,0.00051179,0.00109452,-0.00221632,0.00124022,0.074871,0.074871,0.074871,0.074871,0.074871,0.074871,0.074871,0.074871,0.074871,-0.925129,-0.486498,-0.78346,1.30627,0.00109452,-0.00221632,0.00124022,-0.00367085,0.00382219,0.000851747,-0.00545174,0.000605702,0.00156266,0.074871,-0.00102608,0.0163893,-0.00148433,0.00962013,-0.000801618,-3.53195e-05,-0.000321876,-0.0166822,-0.00109601,0.00174178,-0.000567472,-0.00311274,-0.00914559,-0.00126503,0.00219439,-0.00367085,0.00382219,0.000851747,-0.00545174,0.000605702,0.00156266,0,0,0,0,0,0,0,0,0,-0.000407912,-1.08534e-05,0.00026253,-0.000356394,-0.000296557,-0.000239151,-2.01076e-05,-6.54682e-05,0.000323743,0.000364558,6.58505e-05,1.41194e-05
1533,0.00051179,0.00606597,0.00799986,-0.0120003,0.0502146,0.0502146,0.0502146,0.0502146,0.0502146,0.0502146,0.0502146,0.0502146,0.0502146,-0.949785,0.311435,-0.581857,1.15656,0.00606597,0.00799986,-0.0120003,-0.00357295,-0.00184975,-0.000190133,-0.00708144,-0.00294248,0.00332201,0.0502146,-0.00283454,0.0461697,-0.00278979,0.00627189,0.000631616,-0.00633049,0.0383389,-0.0528672,0.00682185,0.0103758,-0.00427742,0.00753792,-0.0246476,-0.00403935,-0.0338765,-0.00357295,-0.00184975,-0.000190133,-0.00708144,-0.00294248,0.00332201,0,0,0,0,0,0,0,0,0,-0.000437014,-2.3517e-05,-0.000198327,-0.00032392,-0.000306213,0.000151932,7.22254e-06,-1.21534e-05,0.000311576,0.000258713,-6.00457e-05,4.93378e-06
1534,0.00051179,0.00759804,0.0192189,-0.00184286,0.121054,0.121054,0.121054,0.121054,0.121054,0.121054,0.121054,0.121054,0.121054,-0.878946,-0.650161,0.262467,1.12434,0.00759804,0.0192189,-0.00184286,0.00220745,0.00469103,0.000117134,0.000332782,-0.00350337,0.0116931,0.121054,0.155311,-1.34978,0.0145037,-0.0303463,-0.157454,-0.12609,-0.0631479,1.49964,-0.0130505,0.103347,-0.0042533,0.268378,-0.0922191,0.0756578,-0.203387,0.00220745,0.00469103,0.000117134,0.000332782,-0.00350337,0.0116931,0,0,0,0,0,0,0,0,0,-0.000327148,0.000519725,-0.000462798,-0.00108249,-0.000325078,0.000654745,-0.000331456,-2.13657e-05,0.000288695,-0.000177243,-5.62011e-05,0.000168887
1535,0.00051179,-0.00208453,-0.00165551,0.000352902,0.0438319,0.0438319,0.0438319,0.0438319,0.0438319,0.0438319,0.0438319,0.0438319,0.0438319,-0.956168,-0.258978,0.872647,1.32017,-0.00208453,-0.00165551,0.000352902,-0.00673428,-0.00147836,-0.00129856,0.00871697,0.000272242,0.00299717,0.0438319,0.00140657,-0.00657784,0.000294991,-0.00517459,-5.35378e-05,-0.000251018,0.0129623,0.00871591,0.000769554,0.001831,-0.000263622,-0.000134045,0.0049991,-0.000893105,-0.0131811,-0.00673428,-0.00147836,-0.00129856,0.00871697,0.000272242,0.00299717,0,0,0,0,0,0,0,0,0,-0.000666477,-3.3865e-05,-0.000139774,-0.000248807,-0.000346089,0.000127941,4.02062e-05,1.46638e-05,0.000309177,0.000233312,-1.45776e-05,3.29394e-06
1536,0.00051179,-0.257191,0.0303598,-0.022571,0.0103437,0.0103437,0.0103437,0.0103437,0.0103437,0.0103437,0.0103437,0.0103437,0.0103437,-0.788931,-0.989656,-0.0824981,1.26832,-0.257191,0.0303598,-0.022571,-0.228406,0.00615036,-0.00654644,-0.0506585,-0.0175678,0.154623,0.0103437,-1.18353,-14.1402,-0.0434972,-0.332254,-3.82249,0.687066,0.886572,18.2199,-0.00949647,-0.390685,7.28788e-05,-0.205539,0.69258,0.773641,-0.658462,-0.228406,0.00615036,-0.00654644,-0.0506585,-0.0175678,0.154623,0,0,0,0,0,0,0,0,0,-0.00130475,-0.00643217,0.00334947,0.00308495,-0.000702972,-0.00372294,0.000326714,0.00158347,0.000797078,0.00372024,-0.00175842,0.00526881
1537,0.00051179,0.00526307,0.00252264,-0.0089845,0.0422946,0.0422946,0.0422946,0.0422946,0.0422946,0.0422946,0.0422946,0.0422946,0.0422946,-0.957705,0.71315,-0.604262,1.33825,0.00526307,0.00252264,-0.0089845,-0.000716358,-0.000680763,-0.00150599,-0.00646339,-0.0125021,0.00501511,0.0422946,-0.00197677,0.0405152,-0.00270676,0.0100329,0.00178157,-0.00349224,0.0271629,-0.0475599,0.0051194,-0.0198717,0.000575789,0.00841134,0.00731612,-0.00262136,-0.0265897,-0.000716358,-0.000680763,-0.00150599,-0.00646339,-0.0125021,0.00501511,0,0,0,0,0,0,0,0,0,-0.000556655,-1.15695e-05,-0.000428821,-0.000492265,-0.000309819,0.000394946,-4.82375e-06,7.11431e-05,0.000263631,0.000442282,-0.000190406,1.38649e-05
1538,0.00051179,-0.0400242,-0.000862896,-0.00594354,0.0760337,0.0760337,0.0760337,0.0760337,0.0760337,0.0760337,0.0760337,0.0760337,0.0760337,-0.826034,0.361381,-0.0194645,0.901835,-0.0400242,-0.000862896,-0.00594354,-0.0028127,-0.0129221,0.0104992,-0.00226942,0.00264252,-0.00435875,0.0760337,-0.213569,-1.6859,-0.0534276,-0.588039,0.0394237,0.373953,2.49631,1.6865,-0.0360922,-0.0981968,0.127025,-0.0592328,0.687099,0.0371783,-2.43114,-0.0028127,-0.0129221,0.0104992,-0.00226942,0.00264252,-0.00435875,0,0,0,0,0,0,0,0,0,-0.000654198,-0.000825843,-0.000378457,0.00431204,-0.000333393,-0.000285041,6.42579e-05,0.0011431,0.000436217,-0.000467519,0.000153576,0.000420164
1539,0.00051179,-0.00618452,0.0158099,0.030915,0.0284395,0.0284395,0.0284395,0.0284395,0.0284395,0.0284395,0.0284395,0.0284395,0.0284395,-0.971561,-0.832187,-0.212395,1.29676,-0.00618452,0.0158099,0.030915,0.00812177,0.00513658,0.0422839,-0.00565159,0.0349815,-0.00677221,0.0284395,-0.206504,-0.87896,-0.0677526,-0.0837966,-0.0591661,0.0108938,-0.723224,0.944311,-0.0136194,-0.106139,-0.0115393,0.00273567,0.174126,0.0345754,0.689573,0.00812177,0.00513658,0.0422839,-0.00565159,0.0349815,-0.00677221,0,0,0,0,0,0,0,0,0,-0.000797309,-0.000772854,0.000655066,8.27919e-05,-0.000351245,-0.00128123,0.000122703,-0.00017891,0.000284575,0.000448985,0.000413332,0.000358074
1540,0.00051179,-0.0124132,-0.00238135,0.0202668,0.0191626,0.0191626,0.0191626,0.0191626,0.0191626,0.0191626,0.0191626,0.0191626,0.0191626,-0.980837,0.306581,0.552346,1.16667,-0.0124132,-0.00238135,0.0202668,0.00397949,0.000276422,-0.0047512,0.0107119,-0.00617653,0.00197583,0.0191626,0.00917204,-0.0745084,-0.00164472,-0.00354234,-0.000177026,-0.00957015,0.0583572,0.0870986,0.0137022,-0.0290773,-0.000453766,-0.013069,0.035001,0.010565,-0.065555,0.00397949,0.000276422,-0.0047512,0.0107119,-0.00617653,0.00197583,0,0,0,0,0,0,0,0,0,-0.000587985,7.9425e-06,0.00018244,-0.000243062,-0.000319505,-0.000196123,6.42551e-05,-3.34121e-05,0.000288159,9.98481e-05,-3.28908e-05,4.88919e-06
1541,0.00051179,-0.102254,0.0722201,-0.364822,0.00658216,0.00658216,0.00658216,0.00658216,0.00658216,0.00658216,0.00658216,0.00658216,0.00658216,-0.743418,0.666536,0.111035,1.00462,-0.102254,0.0722201,-0.364822,0.0440738,0.107108,0.116935,0.238692,-0.0948404,-0.0366092,0.00658216,2.5843,15.4133,-0.0760349,-1.2353,-1.96067,-1.0368,-16.3506,-13.3503,0.388976,-1.27493,0.0441357,0.944885,2.43801,0.731346,15.7705,0.0440738,0.107108,0.116935,0.238692,-0.0948404,-0.0366092,0,0,0,0,0,0,0,0,0,0.000535391,0.00858327,0.000273957,-0.00446612,-0.000391865,3.67768e-05,-0.00142025,-0.000978447,9.06959e-05,-0.00473258,0.0004714,-0.0010849
1542,0.00051179,0.0236084,-0.032881,0.00545444,0.0322033,0.0322033,0.0322033,0.0322033,0.0322033,0.0322033,0.0322033,0.0322033,0.0322033,-0.782203,0.032112,-0.0640106,0.785475,0.0236084,-0.032881,0.00545444,0.0124919,-0.00433156,0.00798126,0.00344664,0.0105943,0.00537823,0.0322033,-0.181365,-1.30545,-0.033697,-0.360979,-1.03108,0.0874459,-0.349824,2.31293,-0.147973,-0.07306,-0.00302334,0.329391,0.46692,0.0220553,0.0149786,0.0124919,-0.00433156,0.00798126,0.00344664,0.0105943,0.00537823,0,0,0,0,0,0,0,0,0,-0.00063353,-0.000514404,-0.000173063,0.00102394,-0.000349933,-0.000207222,-0.000392672,0.000148023,0.000394247,-6.96677e-05,-7.23135e-05,0.000467129
1543,0.00051179,0.0221329,-0.0154639,-0.0142528,0.0459533,0.0459533,0.0459533,0.0459533,0.0459533,0.0459533,0.0459533,0.0459533,0.0459533,-0.795953,-0.0110468,-0.287774,0.84645,0.0221329,-0.0154639,-0.0142528,-0.0104284,0.00011686,0.00293282,-0.0103011,-0.000358911,0.0118346,0.0459533,-0.00186472,0.160627,4.88237e-05,-0.0061713,0.00159974,-0.0110168,0.419988,-0.18436,0.00160569,0.0190458,-0.00820203,-0.0205058,0.00258938,-0.0332655,-0.38523,-0.0104284,0.00011686,0.00293282,-0.0103011,-0.000358911,0.0118346,0,0,0,0,0,0,0,0,0,-0.000530466,-1.25199e-05,-7.6562e-06,-0.00058526,-0.000322515,9.31303e-06,5.46835e-06,-5.40067e-05,0.000363588,0.00050442,-3.16028e-05,-5.82091e-05
1544,0.00051179,-0.0221003,-0.0728715,0.00457484,0.0026218,0.0026218,0.0026218,0.0026218,0.0026218,0.0026218,0.0026218,0.0026218,0.0026218,-0.752622,0.464877,0.266807,0.923978,-0.0221003,-0.0728715,0.00457484,0.0419058,-0.017637,0.0722809,-0.0135214,-0.0217697,-0.00515015,0.0026218,0.000660136,0.0157023,-0.00134962,-0.0547018,-0.00123206,-0.000621587,0.301827,0.00763003,-0.0320364,-0.0766634,-0.00918822,0.0909292,0.204237,0.048766,-0.397331,0.0419058,-0.017637,0.0722809,-0.0135214,-0.0217697,-0.00515015,0,0,0,0,0,0,0,0,0,-0.0003931,0.000165956,0.000479818,-0.001326,-0.000368947,-0.000669684,-0.000274663,-0.000329502,0.000333577,0.00204259,1.99227e-05,0.000171205
1545,0.00051179,-0.00358805,-0.00680985,-0.00487079,0.0799223,0.0799223,0.0799223,0.0799223,0.0799223,0.0799223,0.0799223,0.0799223,0.0799223,-0.829922,-0.597571,-0.693557,1.23567,-0.00358805,-0.00680985,-0.00487079,-0.00551935,0.00136133,0.00397237,0.00104237,-0.00661084,-0.00220764,0.0799223,0.000649586,0.00849013,-0.000853114,0.0074958,-0.000351636,-0.000734515,0.0121065,-0.00455044,0.00366844,0.0100689,-0.00115821,-0.00155958,-0.0107549,0.000604104,-0.00567612,-0.00551935,0.00136133,0.00397237,0.00104237,-0.00661084,-0.00220764,0,0,0,0,0,0,0,0,0,-0.000476524,-2.23152e-05,0.000335337,-0.000384171,-0.000331962,-0.000330255,2.55877e-05,-0.000130123,0.000354581,0.000416549,5.24321e-05,-5.98403e-06
1546,0.00051179,0.0339369,0.0506373,0.00559592,0.0239557,0.0239557,0.0239557,0.0239557,0.0239557,0.0239557,0.0239557,0.0239557,0.0239557,-0.79065,0.976044,-0.335973,1.30026,0.0339369,0.0506373,0.00559592,-0.00510903,-0.0135492,0.0118015,-0.010731,0.00634464,0.0197669,0.0239557,9.59784e-05,-0.0692382,0.000340648,-0.0195015,-0.0105598,0.00276402,-0.353701,0.0458611,0.00115268,-0.12331,0.0063305,-0.181037,0.0921737,0.0343524,0.529142,-0.00510903,-0.0135492,0.0118015,-0.010731,0.00634464,0.0197669,0,0,0,0,0,0,0,0,0,-0.000892647,-7.06745e-05,-0.000723393,-0.000916458,-0.000147993,0.000591307,-9.35007e-05,0.000603664,0.000344947,0.00106211,-0.000476913,0.000224987
1547,0.00051179,-0.040621,-0.0249235,-0.0248179,0.101639,0.101639,0.101639,0.101639,0.101639,0.101639,0.101639,0.101639,0.101639,-0.851639,-0.83764,-0.17231,1.20691,-0.040621,-0.0249235,-0.0248179,-0.00615611,-0.000775173,0.0117395,0.00927254,-0.0208591,-0.00101557,0.101639,-0.474996,-0.839347,-0.1142,-0.161957,0.0175821,-0.138366,-2.93909,0.862386,-0.0157054,-0.193848,-0.0543774,0.0885249,0.380728,0.0662555,2.87538,-0.00615611,-0.000775173,0.0117395,0.00927254,-0.0208591,-0.00101557,0,0,0,0,0,0,0,0,0,-0.000971504,-0.00191844,0.000145329,-0.00138452,-0.000515694,-0.00129508,0.000455157,-0.00031007,0.000341579,0.000118252,-0.000442294,0.000813521
1548,0.00051179,-0.00456624,-0.00538424,-0.0193659,0.00218909,0.00218909,0.00218909,0.00218909,0.00218909,0.00218909,0.00218909,0.00218909,0.00218909,-0.997811,0.373167,-0.791181,1.32697,-0.00456624,-0.00538424,-0.0193659,-0.00538867,-0.00033352,0.000456143,-0.0120774,-0.00413104,0.00337882,0.00218909,-0.00201748,0.0288983,-0.00238764,0.0148298,0.00095703,0.000395186,0.0165055,-0.0252891,-0.00103401,-0.000142063,-0.000342067,0.00420607,-0.00930348,-0.00227584,-0.00134569,-0.00538867,-0.00033352,0.000456143,-0.0120774,-0.00413104,0.00337882,0,0,0,0,0,0,0,0,0,-0.000378214,-1.46293e-05,-0.000192246,-0.00034431,-0.000319773,0.000165034,-4.31557e-05,4.23716e-05,0.000288107,0.000352823,-8.71027e-05,2.79164e-05
1549,0.00051179,-0.0108621,0.00193896,-0.0211124,0.0550556,0.0550556,0.0550556,0.0550556,0.0550556,0.0550556,0.0550556,0.0550556,0.0550556,-0.944944,0.402335,-0.371491,1.09215,-0.0108621,0.00193896,-0.0211124,-0.00482978,0.000783922,0.00686884,0.00701806,-0.00118757,0.000298644,0.0550556,-0.0638299,0.503495,-0.000594966,0.0279229,0.0135115,-0.0574506,0.142863,-0.506145,-0.0134659,0.0438926,-0.0106525,0.00751363,-0.0737545,-0.0322653,-0.129265,-0.00482978,0.000783922,0.00686884,0.00701806,-0.00118757,0.000298644,0,0,0,0,0,0,0,0,0,-0.00053709,-0.000219751,-0.000270183,-0.00047357,-0.000311011,0.000272073,9.13079e-05,-4.74212e-05,0.000303209,-3.22467e-05,-7.09795e-05,-3.62861e-05
1550,0.00051179,-0.0231996,-0.0126379,-0.0112952,0.113219,0.113219,0.113219,0.113219,0.113219,0.113219,0.113219,0.113219,0.113219,-0.886781,-0.657853,-0.118121,1.11045,-0.0231996,-0.0126379,-0.0112952,0.00878972,0.00192322,0.0137648,0.00267665,-0.00293434,0.00694245,0.113219,-0.752128,-5.92343,-0.0302634,0.19669,0.822869,-0.00831421,-1.5057,5.12376,-0.0653834,-0.32196,0.0120312,-0.0466274,0.137908,0.138715,1.56363,0.00878972,0.00192322,0.0137648,0.00267665,-0.00293434,0.00694245,0,0,0,0,0,0,0,0,0,-0.000886351,-0.00295471,0.000195125,0.00056487,-0.000386888,-0.000478526,0.000448452,8.65908e-05,0.000388294,-0.000510364,4.37754e-06,0.00149027
1551,0.00051179,-0.0231509,0.0068239,-0.00535768,0.101626,0.101626,0.101626,0.101626,0.101626,0.101626,0.101626,0.101626,0.101626,-0.898374,0.0495468,0.148826,0.911965,-0.0231509,0.0068239,-0.00535768,0.0132354,0.000193778,0.00606401,0.0102521,0.00670172,0.00824334,0.101626,0.119428,0.40852,0.0222939,0.0880031,0.34229,0.00236884,-0.397517,-0.72766,0.0995465,0.00884743,-0.0127377,-0.0874204,-0.103674,-0.0517036,0.490295,0.0132354,0.000193778,0.00606401,0.0102521,0.00670172,0.00824334,0,0,0,0,0,0,0,0,0,-0.000495307,0.000433698,0.000101448,4.7241e-05,-0.000330323,0.000123429,0.000319376,-3.16561e-05,0.000332497,3.70875e-05,-2.87043e-05,-0.000446918
1552,0.00051179,-0.000113491,-0.000886365,0.00118298,0.107899,0.107899,0.107899,0.107899,0.107899,0.107899,0.107899,0.107899,0.107899,-0.892101,-0.701355,0.838589,1.41102,-0.000113491,-0.000886365,0.00118298,-0.0010019,-0.00143707,-0.00145363,0.00330659,0.0030258,0.00459265,0.107899,0.000732377,-0.0042246,0.000267275,-0.00213232,0.00112195,0.000357475,0.000873265,0.00321614,-0.000339346,-0.000800996,-0.000688344,0.000378764,0.00381968,-0.00116323,-0.00243501,-0.0010019,-0.00143707,-0.00145363,0.00330659,0.0030258,0.00459265,0,0,0,0,0,0,0,0,0,-0.000554077,-8.41739e-06,-0.000314007,-0.000371135,-0.000341946,0.000302309,7.76643e-06,2.01458e-06,0.000324957,0.000360173,2.136e-05,1.00773e-05
1553,0.00051179,0.00621951,-0.00422205,0.0115361,0.115881,0.115881,0.115881,0.115881,0.115881,0.115881,0.115881,0.115881,0.115881,-0.884119,-0.252655,-0.305973,0.969082,0.00621951,-0.00422205,0.0115361,-0.00967271,0.00355045,-0.000463409,-0.000315841,0.012234,-0.00462528,0.115881,-0.0457184,0.535707,0.00668091,-0.143479,-0.0213059,-0.0517978,0.187298,-0.52062,-0.0233729,-0.0428238,0.00543063,-0.0512013,0.190525,-0.0380111,-0.147633,-0.00967271,0.00355045,-0.000463409,-0.000315841,0.012234,-0.00462528,0,0,0,0,0,0,0,0,0,-0.000545897,-0.000136514,0.000221525,-0.000686169,-0.000317061,-0.000119211,2.19979e-05,0.000121507,0.000330508,0.000163557,5.51393e-05,-7.27399e-05
1554,0.00051179,-0.00191056,0.00183208,-0.00899066,0.0491697,0.0491697,0.0491697,0.0491697,0.0491697,0.0491697,0.0491697,0.0491697,0.0491697,-0.95083,0.09032,-0.78408,1.23573,-0.00191056,0.00183208,-0.00899066,-0.00253772,-0.000286474,0.00183368,-0.00603143,-0.00172277,0.000484846,0.0491697,-0.00154345,0.0217883,-0.00201478,0.0121067,0.000249501,0.000118524,0.00615045,-0.0201273,-0.000618996,0.000604681,-0.0012025,0.00261664,-0.0145435,-0.00149417,0.000223568,-0.00253772,-0.000286474,0.00183368,-0.00603143,-0.00172277,0.000484846,0,0,0,0,0,0,0,0,0,-0.000344969,-6.85862e-06,-5.7287e-05,-0.00031699,-0.000305796,3.42745e-05,-1.97049e-05,3.8183e-06,0.000320964,0.000336512,-3.30709e-05,8.50058e-06
1555,0.00051179,0.0134214,-0.00291809,-0.0156681,0.0448693,0.0448693,0.0448693,0.0448693,0.0448693,0.0448693,0.0448693,0.0448693,0.0448693,-0.955131,-0.870345,0.477683,1.37766,0.0134214,-0.00291809,-0.0156681,-0.0036048,-0.000733502,-0.0040869,0.000391382,0.0161786,0.00804878,0.0448693,0.000963345,-0.0271715,0.00577892,-0.0491903,0.0109268,-0.00186606,0.0509678,0.00282329,0.00349088,0.000204159,-0.00436023,-0.0149655,0.0519042,0.00143905,-0.0203341,-0.0036048,-0.000733502,-0.0040869,0.000391382,0.0161786,0.00804878,0,0,0,0,0,0,0,0,0,-0.000328057,-2.55865e-05,-0.000626483,-0.000505652,-0.00037458,0.000676937,7.0321e-06,-1.42164e-05,0.000283942,0.000446122,0.0001324,3.506e-05
1556,0.00051179,0.0210972,0.0168455,0.0465506,0.0509638,0.0509638,0.0509638,0.0509638,0.0509638,0.0509638,0.0509638,0.0509638,0.0509638,-0.949036,-0.449746,-0.157504,1.06196,0.0210972,0.0168455,0.0465506,0.00857589,-0.0183899,0.0127925,-0.0162274,-0.0165391,-0.006639,0.0509638,-0.429471,-1.98652,0.0540386,0.525625,0.295218,-0.0877663,-0.855911,1.67021,-0.075897,-0.0288914,-0.00193794,-0.0447213,-0.513579,0.0472843,0.854081,0.00857589,-0.0183899,0.0127925,-0.0162274,-0.0165391,-0.006639,0,0,0,0,0,0,0,0,0,-0.000668935,-0.00155943,0.000374701,-0.000314674,-0.000318611,-1.82141e-05,8.44251e-05,-0.00014918,0.000382051,-0.000435064,-3.559e-05,0.000748274
1557,0.00051179,0.00768867,0.00472853,-0.0271019,0.028919,0.028919,0.028919,0.028919,0.028919,0.028919,0.028919,0.028919,0.028919,-0.971081,0.242901,-0.269533,1.03665,0.00768867,0.00472853,-0.0271019,6.48163e-05,0.00840483,0.0016985,0.0029879,0.0164764,-0.000443451,0.028919,-0.114279,0.188242,-0.0251728,0.0836692,-0.0711201,-0.0589829,-0.174742,-0.12481,-0.0292421,0.013119,-0.0168515,-0.0566486,-0.101517,-0.00222076,0.258493,6.48163e-05,0.00840483,0.0016985,0.0029879,0.0164764,-0.000443451,0,0,0,0,0,0,0,0,0,-0.000547029,-0.000405917,-0.000149849,-0.000451208,-0.000330323,-1.78311e-05,3.38815e-05,1.07197e-05,0.000318795,-0.000121636,-1.44701e-05,0.000151832
1558,0.00051179,-0.0150371,0.0022136,-0.083796,0.028029,0.028029,0.028029,0.028029,0.028029,0.028029,0.028029,0.028029,0.028029,-0.89252,-0.971971,-0.160818,1.32935,-0.0150371,0.0022136,-0.083796,-0.0213181,0.00770026,-0.0398212,0.00422804,-0.0142562,0.0179003,0.028029,-0.266119,-1.67228,-0.0415037,-0.173418,-1.22948,0.170449,-1.81089,2.9168,-0.00261422,-0.0896843,-0.00849377,-0.298257,0.260888,0.245637,2.19294,-0.0213181,0.00770026,-0.0398212,0.00422804,-0.0142562,0.0179003,0,0,0,0,0,0,0,0,0,-0.000981219,-0.00141147,0.00128645,4.50666e-05,-0.000488305,-0.00162449,3.37843e-05,-0.000294986,0.000360899,0.00126121,6.74864e-05,0.0013434
1559,0.00051179,-0.0182239,-0.00145246,0.0135016,0.087634,0.087634,0.087634,0.087634,0.087634,0.087634,0.087634,0.087634,0.087634,-0.912366,-0.385314,-0.294826,1.03334,-0.0182239,-0.00145246,0.0135016,-0.00576925,-0.00268745,0.00887489,-0.00313019,-0.00136167,-0.000984339,0.087634,-0.118682,0.81565,0.0152944,-0.156034,0.0184689,-0.100213,0.0509318,-0.815895,-0.0273536,-0.0757739,0.0176628,-0.0154146,0.23326,-0.0494512,-0.0490188,-0.00576925,-0.00268745,0.00887489,-0.00313019,-0.00136167,-0.000984339,0,0,0,0,0,0,0,0,0,-0.00058341,-0.00038529,0.00032171,-0.000797042,-0.000318373,-0.000195641,8.45472e-05,0.000106029,0.000321217,-0.000116338,5.69818e-05,-1.52118e-05
1560,0.00051179,-0.000114297,0.000138971,0.00111322,0.0625567,0.0625567,0.0625567,0.0625567,0.0625567,0.0625567,0.0625567,0.0625567,0.0625567,-0.932776,0.489212,0.937443,1.41004,-0.000114297,0.000138971,0.00111322,-0.00147237,-0.000185436,-0.00236894,0.00738825,-0.00235744,0.0054934,0.0625567,0.00121672,0.000485614,-5.85243e-05,-0.00345068,-9.92247e-05,0.000407793,0.0007571,-0.000272092,2.43913e-05,-0.000925774,-0.000202036,-5.74659e-05,0.00423749,-0.00161468,-0.00181285,-0.00147237,-0.000185436,-0.00236894,0.00738825,-0.00235744,0.0054934,0,0,0,0,0,0,0,0,0,-0.000660203,-1.40117e-05,0.000190074,-0.000328549,-0.000322068,-0.000192514,2.43297e-05,1.75915e-05,0.000292905,0.000308938,-4.31863e-05,6.66009e-06
1561,0.00051179,0.0986385,0.0579107,0.0757761,0.0027139,0.0027139,0.0027139,0.0027139,0.0027139,0.0027139,0.0027139,0.0027139,0.0027139,-0.747286,0.35041,-0.112792,0.833034,0.0986385,0.0579107,0.0757761,-0.0403471,-0.0603898,0.0966173,-0.00321425,-0.0198558,0.0158268,0.0027139,-1.38322,-8.88771,-0.375989,-2.24853,-0.0286694,-0.597165,-10.0512,8.81774,-0.51903,-0.441001,-0.180538,-0.0510871,2.63162,-0.470905,10.0265,-0.0403471,-0.0603898,0.0966173,-0.00321425,-0.0198558,0.0158268,0,0,0,0,0,0,0,0,0,-0.00115158,-0.0043476,-0.00229449,-0.00234476,-0.000491763,-0.00206929,0.000159043,-0.00133163,0.000205539,-0.00266071,-0.000672315,0.00049487
1562,0.00051179,0.0138527,-0.0164006,0.0359786,0.0263138,0.0263138,0.0263138,0.0263138,0.0263138,0.0263138,0.0263138,0.0263138,0.0263138,-0.973686,-0.631407,0.065563,1.16234,0.0138527,-0.0164006,0.0359786,0.00207234,-0.0161289,-0.000292782,0.0219105,-0.0151607,0.0311839,0.0263138,0.332784,1.91232,0.0391657,-0.0697588,-0.160003,0.173941,0.913862,-1.76617,0.047812,0.140227,0.00969709,-0.23858,-0.0540681,-0.0572199,-0.71126,0.00207234,-0.0161289,-0.000292782,0.0219105,-0.0151607,0.0311839,0,0,0,0,0,0,0,0,0,-0.000490569,0.0012375,-0.000217741,0.00131708,-0.000399107,0.000448109,-8.81684e-05,-0.000233516,0.000438727,0.000419405,0.00017888,-0.00056696
1563,0.00051179,-0.0717053,-0.0315625,-0.0238513,0.00404658,0.00404658,0.00404658,0.00404658,0.00404658,0.00404658,0.00404658,0.00404658,0.00404658,-0.995953,-0.921825,-0.115985,1.36203,-0.0717053,-0.0315625,-0.0238513,0.0115555,0.0163311,-0.00614831,-0.0278388,-0.00443556,-0.0174108,0.00404658,-0.183948,-1.7609,-0.0557111,-0.238271,-0.418774,0.305201,-0.161048,2.25138,0.00131087,0.0227845,0.0202329,0.0968317,0.247049,0.0922296,0.0880678,0.0115555,0.0163311,-0.00614831,-0.0278388,-0.00443556,-0.0174108,0,0,0,0,0,0,0,0,0,-0.000775248,-0.000718766,0.000853053,0.00153965,-0.000349218,-0.00124685,1.05538e-05,-0.000418375,0.00026641,0.00145088,0.000576349,0.000517287
1564,0.00051179,-0.01397,-0.000271697,0.00514404,0.00927725,0.00927725,0.00927725,0.00927725,0.00927725,0.00927725,0.00927725,0.00927725,0.00927725,-0.990723,-0.431621,0.526621,1.20215,-0.01397,-0.000271697,0.00514404,0.0106473,0.000486488,-0.00630473,0.01114,1.75686e-05,-0.0069204,0.00927725,0.011883,-0.0887272,-0.00150221,0.00541467,-0.00839043,-0.0129868,0.0573222,0.111088,0.0131948,0.0371107,0.00505619,0.00469516,-0.0422537,0.0126172,-0.0671614,0.0106473,0.000486488,-0.00630473,0.01114,1.75686e-05,-0.0069204,0,0,0,0,0,0,0,0,0,-0.000548311,5.20031e-05,-0.000296617,-0.00023716,-0.000374401,0.000286459,6.10257e-05,6.24605e-05,0.000307471,4.4245e-05,-1.17229e-05,-3.21643e-05
1565,0.00051179,-0.000122497,0.00368145,-0.00453222,0.0685493,0.0685493,0.0685493,0.0685493,0.0685493,0.0685493,0.0685493,0.0685493,0.0685493,-0.931451,-0.217795,-0.636065,1.14874,-0.000122497,0.00368145,-0.00453222,-0.00339189,0.00319867,0.000718016,-0.00733228,0.000314219,-0.00094511,0.0685493,-0.00169764,0.0312726,-0.00281381,0.0145944,-0.00102998,-0.00368273,0.0216707,-0.0301201,0.00434576,0.00041827,-0.00391362,-0.00225014,-0.0186941,-0.00197728,-0.0148884,-0.00339189,0.00319867,0.000718016,-0.00733228,0.000314219,-0.00094511,0,0,0,0,0,0,0,0,0,-0.000402406,-1.27572e-05,0.000124269,-0.00032106,-0.000306809,-0.000120421,-2.24209e-06,-4.08558e-05,0.000332065,0.000291413,4.86177e-06,-1.92143e-06
1566,0.00051179,0.00195565,0.000584804,-0.0201999,0.0315124,0.0315124,0.0315124,0.0315124,0.0315124,0.0315124,0.0315124,0.0315124,0.0315124,-0.968488,0.262389,-0.710452,1.22945,0.00195565,0.000584804,-0.0201999,-0.00402577,-0.000727892,0.00144004,-0.00895327,-0.0018217,0.00143507,0.0315124,-0.00229834,0.0303763,-0.00302916,0.0167897,0.000682997,-0.00173947,0.0210736,-0.0330149,0.00183983,0.00153441,-0.00191719,0.00529559,-0.0189089,-0.00199176,-0.00616922,-0.00402577,-0.000727892,0.00144004,-0.00895327,-0.0018217,0.00143507,0,0,0,0,0,0,0,0,0,-0.000386462,-1.54733e-05,-0.00015304,-0.000325803,-0.000309432,0.000115469,-1.942e-05,2.22859e-05,0.000307687,0.000322808,-5.96747e-05,1.33637e-05
1567,0.00051179,0.000477165,-0.000677237,-0.0160549,0.112626,0.112626,0.112626,0.112626,0.112626,0.112626,0.112626,0.112626,0.112626,-0.862626,0.0159944,-0.485774,0.990129,0.000477165,-0.000677237,-0.0160549,-0.00184017,-0.000510688,-0.00178131,-0.00671538,-0.00232294,-0.000140166,0.112626,-0.00138919,0.0477766,-0.000667326,0.00535808,-6.393e-05,-0.00554523,0.0863658,-0.0481899,0.0154406,0.00891553,-0.00572915,0.000253401,-0.0135964,-0.00643404,-0.0705643,-0.00184017,-0.000510688,-0.00178131,-0.00671538,-0.00232294,-0.000140166,0,0,0,0,0,0,0,0,0,-0.00044018,-1.49026e-05,-1.05319e-05,-0.000369895,-0.000312442,-1.24825e-06,4.48704e-05,-5.62364e-05,0.00034675,0.00029663,-2.42846e-05,-3.16268e-05
1568,0.00051179,-0.00147451,-0.00405696,0.00467556,0.0807014,0.0807014,0.0807014,0.0807014,0.0807014,0.0807014,0.0807014,0.0807014,0.0807014,-0.919299,-0.625724,-0.689668,1.30854,-0.00147451,-0.00405696,0.00467556,-0.00348314,0.0027881,0.00079637,-0.00509948,0.00313017,0.00164998,0.0807014,-0.000413582,0.0212705,-0.0018686,0.0122634,-0.0017994,-0.000924297,0.00124719,-0.0179966,0.00107671,0.00754432,-0.00126238,-0.00125239,-0.0157508,-0.0011157,-0.00467037,-0.00348314,0.0027881,0.00079637,-0.00509948,0.00313017,0.00164998,0,0,0,0,0,0,0,0,0,-0.000486039,-1.09622e-05,0.000350222,-0.00039931,-0.000303024,-0.000341027,-1.15924e-05,-8.47559e-05,0.000315592,0.000398031,0.000103434,1.11928e-05
1569,0.00051179,-0.00362722,0.000877503,0.00459454,0.0567745,0.0567745,0.0567745,0.0567745,0.0567745,0.0567745,0.0567745,0.0567745,0.0567745,-0.943225,0.200877,0.8295,1.27204,-0.00362722,0.000877503,0.00459454,-0.00231755,-0.000702976,-0.00176013,0.00864634,-0.00114447,0.00379408,0.0567745,0.000763848,-0.00684306,0.000604279,-0.00526215,0.000762556,-0.000382785,0.0144263,0.00970773,0.000188632,-0.00134095,-0.000728449,-0.00078648,0.0057256,-0.000294365,-0.0182343,-0.00231755,-0.000702976,-0.00176013,0.00864634,-0.00114447,0.00379408,0,0,0,0,0,0,0,0,0,-0.000669345,-2.02081e-05,8.4666e-05,-0.000260461,-0.000330145,-8.5653e-05,3.17353e-05,8.51348e-06,0.000300147,0.000239032,-2.72427e-05,5.05899e-06
1570,0.00051179,-0.000623092,0.00929146,-0.00691006,0.0971516,0.0971516,0.0971516,0.0971516,0.0971516,0.0971516,0.0971516,0.0971516,0.0971516,-0.847152,0.701087,-0.398654,1.16966,-0.000623092,0.00929146,-0.00691006,-0.00768113,-0.00363225,0.00178032,-0.000412907,0.0101318,-0.00498478,0.0971516,-0.00864689,0.179563,0.0030551,-0.044441,-0.00427845,-0.0130479,0.196018,-0.174662,0.0267873,-0.0671457,0.0105203,0.0461566,0.102295,-0.0206379,-0.235265,-0.00768113,-0.00363225,0.00178032,-0.000412907,0.0101318,-0.00498478,0,0,0,0,0,0,0,0,0,-0.000661634,-6.36673e-05,-0.000559653,-0.000630504,-0.000227356,0.000553882,0.000149845,0.000242445,0.000307702,0.000517828,-3.59242e-05,-0.000110141
1571,0.00051179,0.00785515,0.0116053,0.035736,0.06903,0.06903,0.06903,0.06903,0.06903,0.06903,0.06903,0.06903,0.06903,-0.93097,0.733442,0.0018613,1.18518,0.00785515,0.0116053,0.035736,-0.00575391,-0.00378452,-0.0146311,-0.00812881,0.00342772,-0.0104697,0.06903,0.0269368,-0.0440607,-0.00569712,0.00222364,-0.030935,0.373114,2.25098,0.0671406,0.017807,-0.0422755,-0.0602133,-0.280408,0.0284466,0.000144292,-2.0063,-0.00575391,-0.00378452,-0.0146311,-0.00812881,0.00342772,-0.0104697,0,0,0,0,0,0,0,0,0,-0.000580385,8.22194e-05,5.88599e-05,0.002662,-0.000289315,-0.000153676,2.46962e-05,-0.000352998,0.000445321,0.000922828,-0.000214858,-7.53222e-05
1572,0.00051179,0.00181026,-0.00290732,0.00529171,0.0648996,0.0648996,0.0648996,0.0648996,0.0648996,0.0648996,0.0648996,0.0648996,0.0648996,-0.861767,0.05529,0.9351,1.27284,0.00181026,-0.00290732,0.00529171,-0.000100372,-0.0015154,-0.00119978,-4.63303e-05,0.000332928,0.00576398,0.0648996,0.00112636,-0.00298612,-0.000197075,-0.00119059,0.000138226,0.000377849,0.00229509,0.00103764,-0.000490652,-0.00022232,-0.000137323,-0.000300814,0.00432023,-0.000945706,-0.00728599,-0.000100372,-0.0015154,-0.00119978,-4.63303e-05,0.000332928,0.00576398,0,0,0,0,0,0,0,0,0,-0.000704311,-9.93834e-07,5.89242e-06,-0.000260634,-0.000334555,-2.30172e-05,-8.80871e-06,2.2804e-05,0.000324741,0.000252415,-2.08479e-05,1.79676e-05
1573,0.00051179,-0.000595311,0.000997399,-0.00873507,0.0462677,0.0462677,0.0462677,0.0462677,0.0462677,0.0462677,0.0462677,0.0462677,0.0462677,-0.807509,-0.0685717,-0.953732,1.25155,-0.000595311,0.000997399,-0.00873507,-0.00882363,-0.000281864,0.000755422,0.00258508,-0.00116813,-0.00292743,0.0462677,0.00120677,-0.00438178,-0.000239097,0.00205554,-2.59504e-06,0.000829123,-0.00216876,0.00497969,0.000173701,0.00116662,-0.000171479,-0.000221655,-0.00421956,-0.000375573,0.0111255,-0.00882363,-0.000281864,0.000755422,0.00258508,-0.00116813,-0.00292743,0,0,0,0,0,0,0,0,0,-0.000293255,-2.86677e-05,2.83029e-05,-0.000330786,-0.000307107,-3.35125e-05,2.32105e-05,3.27813e-06,0.000372902,0.000346631,-1.66743e-05,-7.09837e-06
1574,0.00051179,-0.00229406,0.0160831,0.0228923,0.0293174,0.0293174,0.0293174,0.0293174,0.0293174,0.0293174,0.0293174,0.0293174,0.0293174,-0.779317,0.383824,-0.498619,1.00164,-0.00229406,0.0160831,0.0228923,-0.010576,-0.0056733,0.0057723,0.0105891,0.00426302,0.00346234,0.0293174,-0.000215039,0.00690878,-0.000354759,0.00517061,2.81386e-05,-0.000965726,0.0238549,-0.00464286,0.0248724,-0.0138648,-0.00451805,0.00806001,-0.00738893,-0.00642938,-0.0548072,-0.010576,-0.0056733,0.0057723,0.0105891,0.00426302,0.00346234,0,0,0,0,0,0,0,0,0,-0.000488713,-7.89977e-05,-0.000265226,-0.000396857,-0.000263924,0.000204945,0.000152265,4.26857e-05,0.000361405,0.000444922,-4.52359e-05,-3.98776e-05
1575,0.00051179,-0.00294709,0.0137828,0.0131714,0.0388801,0.0388801,0.0388801,0.0388801,0.0388801,0.0388801,0.0388801,0.0388801,0.0388801,-0.96112,0.667842,0.0757074,1.17282,-0.00294709,0.0137828,0.0131714,-0.000505589,0.0154742,0.0105014,0.0293465,0.00651737,0.0205485,0.0388801,0.391944,2.59333,-0.0391055,-0.016218,-0.273497,0.177245,0.786924,-2.31688,0.0506412,-0.206106,-0.0298103,-0.180403,0.208541,-0.0795205,-0.619692,-0.000505589,0.0154742,0.0105014,0.0293465,0.00651737,0.0205485,0,0,0,0,0,0,0,0,0,-0.000461407,0.00148128,0.000222136,0.001504,-0.000287795,-0.000458448,-7.59707e-05,3.16815e-06,0.000402115,0.000373464,-0.000236097,-0.000770769
1576,0.00051179,-0.00559747,0.00103077,-0.0186699,0.0249022,0.0249022,0.0249022,0.0249022,0.0249022,0.0249022,0.0249022,0.0249022,0.0249022,-0.975098,-0.295118,-0.72044,1.24778,-0.00559747,0.00103077,-0.0186699,-0.00295497,0.00494596,0.00156497,-0.0125165,0.000297797,0.00200592,0.0249022,-0.00296007,0.0358682,-0.0028513,0.0154033,-0.00109936,-0.00208431,0.022402,-0.0291714,0.000452055,0.000822092,-0.00258622,-0.00296477,-0.0172562,-0.00212272,-0.000767345,-0.00295497,0.00494596,0.00156497,-0.0125165,0.000297797,0.00200592,0,0,0,0,0,0,0,0,0,-0.000386253,-8.69494e-06,0.000171831,-0.000321364,-0.000295723,-0.000150885,-3.94418e-05,-4.49429e-05,0.000317104,0.00031617,2.20587e-05,2.02963e-05
1577,0.00051179,-0.00715864,0.00534573,-0.0211417,0.115059,0.115059,0.115059,0.115059,0.115059,0.115059,0.115059,0.115059,0.115059,-0.884941,-0.443501,-0.33734,1.04576,-0.00715864,0.00534573,-0.0211417,-0.00233492,-0.000280499,0.00547924,0.000596324,0.00744282,-0.00371209,0.115059,-0.0568057,0.854618,0.00293381,-0.11526,0.0198252,-0.0665829,0.541107,-0.867284,-0.000540065,-0.0775959,0.00325327,0.0161676,0.18751,-0.0543635,-0.536133,-0.00233492,-0.000280499,0.00547924,0.000596324,0.00744282,-0.00371209,0,0,0,0,0,0,0,0,0,-0.000576504,-0.000160518,0.000346978,-0.00075962,-0.000335569,-0.000320445,0.000135466,4.37638e-05,0.000322141,0.000148584,6.31971e-05,-0.000155193
1578,0.00051179,-0.000622357,0.000605946,0.00319204,0.0968817,0.0968817,0.0968817,0.0968817,0.0968817,0.0968817,0.0968817,0.0968817,0.0968817,-0.903118,-0.060831,0.786989,1.19945,-0.000622357,0.000605946,0.00319204,-0.00386187,-0.001466,-0.0005464,0.00462089,-0.000959025,0.00365831,0.0968817,0.000612155,-0.00750752,0.00033427,-0.00420308,0.000373634,-0.000490226,0.012915,0.00775624,-0.000746058,0.000338203,-0.000683328,-0.000536103,0.00325893,0.000519101,-0.0155709,-0.00386187,-0.001466,-0.0005464,0.00462089,-0.000959025,0.00365831,0,0,0,0,0,0,0,0,0,-0.000666223,-2.179e-05,-4.33368e-05,-0.000226964,-0.000337357,3.20195e-05,1.38328e-05,1.13955e-05,0.000315465,0.000216598,-2.7819e-05,1.53457e-05
1579,0.00051179,0.00683768,-0.00394282,0.013372,0.0521202,0.0521202,0.0521202,0.0521202,0.0521202,0.0521202,0.0521202,0.0521202,0.0521202,-0.94788,0.262747,-0.49297,1.10024,0.00683768,-0.00394282,0.013372,-0.00236947,-0.0017189,-0.00151881,0.00453649,-0.00646462,0.00251462,0.0521202,-0.00965862,0.130525,-0.000317506,-0.0180198,0.000708967,-0.0135626,0.0820205,-0.138072,-0.0041696,0.0251806,-0.0056549,0.000388328,-0.00321795,-0.00887153,-0.0957808,-0.00236947,-0.0017189,-0.00151881,0.00453649,-0.00646462,0.00251462,0,0,0,0,0,0,0,0,0,-0.00045792,-3.93503e-05,-0.000167514,-0.000357749,-0.000310445,0.00014715,2.26246e-05,-7.12008e-05,0.000314482,0.000206935,-4.99945e-05,-1.09944e-05
1580,0.00051179,-0.0052526,-0.00825533,-0.0101941,0.0447341,0.0447341,0.0447341,0.0447341,0.0447341,0.0447341,0.0447341,0.0447341,0.0447341,-0.955266,0.684932,-0.460946,1.26259,-0.0052526,-0.00825533,-0.0101941,-0.0048775,-0.000822417,-0.00292333,-0.00268166,-0.0136569,0.0067994,0.0447341,-0.0179606,0.215312,0.00295664,-0.045571,-0.00188452,-0.0176911,0.121393,-0.208174,0.00385137,0.0198207,0.00329128,0.0377413,0.0340056,-0.013237,-0.148941,-0.0048775,-0.000822417,-0.00292333,-0.00268166,-0.0136569,0.0067994,0,0,0,0,0,0,0,0,0,-0.000611871,-8.17604e-05,-0.000523344,-0.000464779,-0.000298494,0.000544687,3.82786e-05,8.56548e-05,0.000271231,0.000258635,-0.00018931,2.41824e-07
1581,0.00051179,0.017548,-0.0359994,-0.0204416,0.0230044,0.0230044,0.0230044,0.0230044,0.0230044,0.0230044,0.0230044,0.0230044,0.0230044,-0.773004,-0.839662,-0.563483,1.27282,0.017548,-0.0359994,-0.0204416,-0.00983841,-0.00140147,0.00701464,0.00418306,-0.0147255,0.0104235,0.0230044,0.00172324,-0.018654,-0.000649087,0.0215467,-0.00238937,0.000632297,0.0126317,0.00349531,0.00202642,0.0359202,-0.00381229,-0.00873474,-0.0214675,0.00299199,0.0165446,-0.00983841,-0.00140147,0.00701464,0.00418306,-0.0147255,0.0104235,0,0,0,0,0,0,0,0,0,-0.000635661,-5.38563e-05,0.000469967,-0.000555747,-0.000385607,-0.000490472,1.77669e-05,-0.000257404,0.000371046,0.000632216,7.20261e-05,5.37969e-05
1582,0.00051179,0.000948139,0.000768039,0.000703244,0.110818,0.110818,0.110818,0.110818,0.110818,0.110818,0.110818,0.110818,0.110818,-0.889182,-0.366827,-0.712604,1.19708,0.000948139,0.000768039,0.000703244,-0.00507118,0.00394392,0.00119693,-0.00258205,-0.00196166,-0.00196424,0.110818,-0.000593528,0.0197466,-0.00167506,0.012477,-0.00125263,-0.00128156,0.00628859,-0.0194421,0.00196867,0.00242405,-0.00156134,-0.00361264,-0.0156691,-0.000545371,-0.0033792,-0.00507118,0.00394392,0.00119693,-0.00258205,-0.00196166,-0.00196424,0,0,0,0,0,0,0,0,0,-0.000403754,-1.81839e-05,0.000216291,-0.000329256,-0.000309849,-0.000193602,7.07275e-06,-6.53271e-05,0.000342257,0.000328409,3.00972e-05,-2.4084e-06
1583,0.00051179,-0.00101831,-0.00181643,0.003474,0.0880464,0.0880464,0.0880464,0.0880464,0.0880464,0.0880464,0.0880464,0.0880464,0.0880464,-0.838046,0.130263,0.727922,1.11766,-0.00101831,-0.00181643,0.003474,-4.46755e-05,-0.00182377,-0.00014472,-0.00126969,0.00104881,0.00671953,0.0880464,1.16974e-05,-0.00234222,0.000303037,0.00029425,0.000626168,2.04146e-06,0.00667894,0.00273436,-0.00148751,0.000141392,-0.00104566,-0.00106248,0.00138079,0.000691127,-0.00909046,-4.46755e-05,-0.00182377,-0.00014472,-0.00126969,0.00104881,0.00671953,0,0,0,0,0,0,0,0,0,-0.000651836,-5.49621e-06,6.70862e-05,-0.000221721,-0.000340307,-8.22935e-05,-1.91173e-05,1.2154e-05,0.000324123,0.000220294,-1.21225e-05,3.1722e-05
1584,0.00051179,0.0115795,-0.0180809,0.0359759,0.0633801,0.0633801,0.0633801,0.0633801,0.0633801,0.0633801,0.0633801,0.0633801,0.0633801,-0.81338,0.738505,-0.236483,1.12379,0.0115795,-0.0180809,0.0359759,-0.0241491,0.0123319,-0.0214302,0.00252395,-0.00123237,-0.0150528,0.0633801,-0.0947087,2.75468,0.0222935,-0.276228,0.109922,-0.131416,1.78926,-2.87619,0.0482448,-0.106067,0.0532024,0.286619,0.400376,-0.143199,-2.11186,-0.0241491,0.0123319,-0.0214302,0.00252395,-0.00123237,-0.0150528,0,0,0,0,0,0,0,0,0,-0.00087624,-0.000333126,-0.000395163,-0.00217485,-0.000149244,0.000741417,0.000515007,0.00027897,0.000285327,0.000646391,0.00024073,-0.000530097
1585,0.00051179,0.0118942,-0.00807643,-0.0504495,0.00724998,0.00724998,0.00724998,0.00724998,0.00724998,0.00724998,0.00724998,0.00724998,0.00724998,-0.99275,0.553984,-0.337067,1.18578,0.0118942,-0.00807643,-0.0504495,0.00708739,0.000172257,0.0134204,-0.0199271,0.00276158,0.0190895,0.00724998,-0.139653,0.495571,0.00251735,0.0396768,0.0789781,-0.0836634,-0.0242824,-0.586444,-0.00843813,0.0760318,-0.00728433,0.0516505,-0.107632,-0.027825,0.0230814,0.00708739,0.000172257,0.0134204,-0.0199271,0.00276158,0.0190895,0,0,0,0,0,0,0,0,0,-0.000588723,-0.000467061,-0.000449823,-0.00038794,-0.000315482,0.000476719,5.39432e-05,8.23177e-05,0.000301443,-0.000314489,-0.000127545,0.000152092
1586,0.00051179,-0.0112573,0.000140021,-0.00729444,0.0529481,0.0529481,0.0529481,0.0529481,0.0529481,0.0529481,0.0529481,0.0529481,0.0529481,-0.947052,-0.681869,-0.512585,1.2746,-0.0112573,0.000140021,-0.00729444,-0.00547811,6.57141e-05,-0.00235344,-0.00363858,0.00667022,0.00841034,0.0529481,-0.00815438,0.126241,-0.00315981,0.0299959,0.00380831,-0.010319,0.0834864,-0.118792,0.000154776,0.000748477,-0.00623351,0.00555683,-0.0308844,-0.00707836,-0.0817488,-0.00547811,6.57141e-05,-0.00235344,-0.00363858,0.00667022,0.00841034,0,0,0,0,0,0,0,0,0,-0.000580795,-4.99498e-05,0.000468621,-0.000426513,-0.000309641,-0.000499562,7.93638e-07,-0.00014013,0.000301674,0.000299789,0.000144497,2.48726e-05
1587,0.00051179,-0.00333618,0.00587071,0.017373,0.0405913,0.0405913,0.0405913,0.0405913,0.0405913,0.0405913,0.0405913,0.0405913,0.0405913,-0.790591,-0.545406,0.518899,1.09168,-0.00333618,0.00587071,0.017373,-0.000871203,-0.00184782,0.00526351,-0.0124136,-0.00609867,0.0035232,0.0405913,0.000380531,-0.0163181,0.000283845,-0.000612449,-0.000624481,-0.00145805,0.0373063,0.0202788,-0.00833832,-0.00599618,-0.000968022,0.00446989,0.000737921,0.00322659,-0.0591492,-0.000871203,-0.00184782,0.00526351,-0.0124136,-0.00609867,0.0035232,0,0,0,0,0,0,0,0,0,-0.000506446,1.42692e-05,-0.000390472,-0.000302558,-0.000302935,0.000374832,-8.70373e-05,-3.37457e-05,0.000348225,0.000340613,-3.69212e-05,5.04715e-05
1588,0.00051179,0.00256501,-0.00276166,-0.00649345,0.0552137,0.0552137,0.0552137,0.0552137,0.0552137,0.0552137,0.0552137,0.0552137,0.0552137,-0.929757,0.944786,-0.943921,1.62729,0.00256501,-0.00276166,-0.00649345,-0.00160373,-0.000300324,0.0007926,-0.00315297,-0.00419151,0.00158764,0.0552137,0.00313045,-0.0186965,-0.000364117,-0.000239425,0.00300926,0.000458509,0.00121418,0.0131223,9.03737e-05,0.00189933,9.05162e-05,0.000347161,0.00110175,-0.00122779,0.0049321,-0.00160373,-0.000300324,0.0007926,-0.00315297,-0.00419151,0.00158764,0,0,0,0,0,0,0,0,0,-0.000457503,8.99057e-06,-0.000279426,-0.000579103,-0.000331575,0.000272781,-1.3956e-05,9.76651e-05,0.000239,0.000591615,-0.000138675,3.1562e-06
1589,0.00051179,0.0102819,0.00683202,-0.00724386,0.00906242,0.00906242,0.00906242,0.00906242,0.00906242,0.00906242,0.00906242,0.00906242,0.00906242,-0.759062,0.470404,0.767154,1.17728,0.0102819,0.00683202,-0.00724386,0.0252331,0.00383479,-0.00625929,-0.00180608,0.00544469,0.0176808,0.00906242,-0.000118181,-0.0093913,8.10102e-05,-0.00927985,0.000224504,0.000560336,0.0076086,-0.00111515,-0.00132959,0.000122868,-0.000923952,0.000499972,0.00232496,-0.000450194,-0.000864711,0.0252331,0.00383479,-0.00625929,-0.00180608,0.00544469,0.0176808,0,0,0,0,0,0,0,0,0,-0.000609122,8.03325e-05,0.000231057,-0.000291446,-0.000362897,-0.000191899,-6.09205e-05,4.66561e-05,0.000344403,0.000234457,-1.44876e-06,4.09108e-05
1590,0.00051179,-0.017345,0.00165409,-0.00494703,0.0261133,0.0261133,0.0261133,0.0261133,0.0261133,0.0261133,0.0261133,0.0261133,0.0261133,-0.973887,-0.680777,-0.0893067,1.19159,-0.017345,0.00165409,-0.00494703,0.0288576,-0.000518456,-0.00936543,-0.0295347,-0.00958269,-0.0135521,0.0261133,-0.33769,-2.55224,-0.0442783,-0.0122522,0.311112,0.12957,0.32808,2.25847,-0.0122344,-0.154743,0.0132913,-0.21776,0.165341,0.0755731,-0.105373,0.0288576,-0.000518456,-0.00936543,-0.0295347,-0.00958269,-0.0135521,0,0,0,0,0,0,0,0,0,-0.000688531,-0.00121118,0.000132278,0.000837394,-0.000349605,-0.000580245,0.000124132,-0.000272001,0.000415385,0.000364647,0.000309086,0.000643082
1591,0.00051179,0.00392596,-0.00146053,0.00370844,0.045864,0.045864,0.045864,0.045864,0.045864,0.045864,0.045864,0.045864,0.045864,-0.954136,0.251362,-0.52851,1.11932,0.00392596,-0.00146053,0.00370844,-0.00265685,-0.00166237,-0.000270456,-0.000579649,-0.00466543,0.00338922,0.045864,-0.00591736,0.0829279,-0.00144082,-0.0139159,0.00027104,-0.00995256,0.0515601,-0.087125,0.000364436,0.0194677,-0.00550373,0.0019693,-0.00409133,-0.00608955,-0.0572379,-0.00265685,-0.00166237,-0.000270456,-0.000579649,-0.00466543,0.00338922,0,0,0,0,0,0,0,0,0,-0.000443473,-2.96136e-05,-0.000161016,-0.000335846,-0.000309283,0.000129984,1.21813e-05,-5.42423e-05,0.000313967,0.000233616,-4.74493e-05,-2.44228e-07
1592,0.00051179,0.0188141,-0.0300282,0.00606906,0.0243831,0.0243831,0.0243831,0.0243831,0.0243831,0.0243831,0.0243831,0.0243831,0.0243831,-0.975617,-0.253941,-0.0322959,1.00864,0.0188141,-0.0300282,0.00606906,0.0123742,-0.00826575,0.000165217,0.0031082,-0.00422114,-0.00451393,0.0243831,-0.0630408,-0.59466,0.0335808,0.0727978,-0.0119143,0.0958456,0.443353,0.58776,-0.00948556,0.0574561,-0.0611039,0.0897997,-0.100226,0.0116678,-0.539221,0.0123742,-0.00826575,0.000165217,0.0031082,-0.00422114,-0.00451393,0,0,0,0,0,0,0,0,0,-0.000571392,-0.000195768,0.000130232,0.000477314,-0.000352407,0.000122919,2.56787e-05,-0.000346595,0.000401706,0.000482794,-0.000306655,9.3335e-05
1593,0.00051179,-0.00284766,-0.000255584,0.00253045,0.0438962,0.0438962,0.0438962,0.0438962,0.0438962,0.0438962,0.0438962,0.0438962,0.0438962,-0.956104,0.0181212,0.837747,1.27133,-0.00284766,-0.000255584,0.00253045,-0.00413783,-0.000954587,-0.000834467,0.00869733,-0.00108586,0.00302556,0.0438962,0.0012119,-0.00984494,0.000513263,-0.00489685,0.000519735,-0.000791468,0.01982,0.0121729,0.000761731,5.39768e-05,-0.000555663,-0.000735394,0.00509845,-6.09905e-05,-0.0216151,-0.00413783,-0.000954587,-0.000834467,0.00869733,-0.00108586,0.00302556,0,0,0,0,0,0,0,0,0,-0.000678606,-2.55886e-05,-4.6076e-06,-0.000242077,-0.000335569,1.94367e-07,3.63364e-05,1.24643e-05,0.000302024,0.000225818,-2.88795e-05,3.86398e-06
1594,0.00051179,-0.00314374,0.000888989,0.000679182,0.0664135,0.0664135,0.0664135,0.0664135,0.0664135,0.0664135,0.0664135,0.0664135,0.0664135,-0.933587,-0.697208,0.773328,1.39847,-0.00314374,0.000888989,0.000679182,-0.00168929,-0.00108168,-0.00170403,0.00586698,0.00779853,0.00334611,0.0664135,0.000925496,-0.0121967,0.00065989,-0.00503228,0.0011181,-0.000405967,0.0155823,0.0142223,-0.000462519,-0.00249192,-0.000977027,0.000274836,0.00663521,-0.000858013,-0.0165363,-0.00168929,-0.00108168,-0.00170403,0.00586698,0.00779853,0.00334611,0,0,0,0,0,0,0,0,0,-0.000531293,-1.20445e-05,-0.000341141,-0.00035536,-0.000356043,0.000336923,1.87968e-05,2.55498e-05,0.000310197,0.00033426,4.26653e-05,4.215e-06
1595,0.00051179,0.0019482,-0.000792118,0.00187284,0.0517029,0.0517029,0.0517029,0.0517029,0.0517029,0.0517029,0.0517029,0.0517029,0.0517029,-0.905917,0.521705,0.948297,1.41143,0.0019482,-0.000792118,0.00187284,-0.00103527,-0.00038057,-0.00101922,0.00576225,-0.00115734,0.00531226,0.0517029,0.0012054,-0.00100839,-0.000202321,-0.00262986,-0.000118919,0.000436142,0.000921214,-0.000820889,-0.000368373,-0.000459157,-0.000177014,-0.000171399,0.00388114,-0.00143698,-0.00262266,-0.00103527,-0.00038057,-0.00101922,0.00576225,-0.00115734,0.00531226,0,0,0,0,0,0,0,0,0,-0.000657842,-1.00408e-05,0.000194935,-0.000336304,-0.000326419,-0.000200764,1.60779e-05,2.42956e-05,0.000300229,0.000330474,-3.76392e-05,8.4849e-06
1596,0.00051179,0.0218926,0.0153104,-0.0241157,0.00096681,0.00096681,0.00096681,0.00096681,0.00096681,0.00096681,0.00096681,0.00096681,0.00096681,-0.999033,0.819446,0.586351,1.41893,0.0218926,0.0153104,-0.0241157,-0.000104395,-0.0089992,-0.00175377,0.00386453,-0.0226662,0.00721824,0.00096681,0.00545456,-0.049959,-0.00279193,0.0146538,0.0117996,-0.00425532,0.0107333,0.0162668,0.00329037,-0.00350319,0.000315136,0.000392894,-0.0264611,0.00259025,0.0129895,-0.000104395,-0.0089992,-0.00175377,0.00386453,-0.0226662,0.00721824,0,0,0,0,0,0,0,0,0,-0.000431947,1.0044e-06,0.000437907,-0.000489165,-0.000290954,-0.000555818,1.00281e-05,-5.13935e-05,0.000237837,0.000429075,-0.000172117,2.3296e-05
1597,0.00051179,0.028224,0.00264529,-0.0451826,0.0165369,0.0165369,0.0165369,0.0165369,0.0165369,0.0165369,0.0165369,0.0165369,0.0165369,-0.983463,-0.638362,0.291097,1.20807,0.028224,0.00264529,-0.0451826,0.00962603,0.00640303,0.0153334,0.0114192,0.021833,-0.0200431,0.0165369,0.168607,-0.38371,0.0188094,-0.137058,-0.151297,-0.0803144,-0.155924,0.506783,0.0310963,0.150579,-0.000393287,0.129221,-0.0161663,0.0228657,0.0718858,0.00962603,0.00640303,0.0153334,0.0114192,0.021833,-0.0200431,0,0,0,0,0,0,0,0,0,-0.000412188,0.000633198,-0.00052752,-0.000161965,-0.000400597,0.000779644,-4.53892e-05,9.64218e-05,0.000324659,-0.000487844,0.000117976,-0.000243854
1598,0.00051179,-0.024673,0.0194649,0.0103118,0.0195462,0.0195462,0.0195462,0.0195462,0.0195462,0.0195462,0.0195462,0.0195462,0.0195462,-0.769546,0.556547,-0.433495,1.04397,-0.024673,0.0194649,0.0103118,-0.0217385,-0.00213947,-0.00325848,0.0247871,0.0129147,0.00589219,0.0195462,0.000420108,0.0363108,-0.000104897,-0.00758959,-0.00168846,-0.000660278,0.02816,-0.00994933,0.0245552,-0.045302,-0.0018505,0.0193048,0.0334267,-0.00796908,-0.0577766,-0.0217385,-0.00213947,-0.00325848,0.0247871,0.0129147,0.00589219,0,0,0,0,0,0,0,0,0,-0.000578247,-0.000136531,-0.000413283,-0.000541795,-0.000222916,0.000390839,0.000216773,0.000142699,0.000355773,0.000502607,-3.2057e-05,-4.03233e-05
1599,0.00051179,0.00331177,-0.000935196,0.00676652,0.0771747,0.0771747,0.0771747,0.0771747,0.0771747,0.0771747,0.0771747,0.0771747,0.0771747,-0.922825,-0.839368,-0.751747,1.45646,0.00331177,-0.000935196,0.00676652,-0.00222537,0.0013831,0.00131741,-0.00251566,0.00627843,-0.000425685,0.0771747,0.00120826,0.00316527,-0.00116085,0.00460959,-0.00274603,0.00128753,-0.00662687,-0.00373101,-0.000942903,-0.00024895,-0.000539979,-0.00252804,-0.00342544,-0.000739675,0.00238839,-0.00222537,0.0013831,0.00131741,-0.00251566,0.00627843,-0.000425685,0,0,0,0,0,0,0,0,0,-0.000535943,1.42334e-06,0.000363748,-0.000493095,-0.000293368,-0.000361526,-1.07839e-05,-9.56717e-05,0.000284426,0.000519144,0.000153056,6.82085e-07
1600,0.00051179,0.00303476,0.00389761,-0.00468556,0.0938734,0.0938734,0.0938734,0.0938734,0.0938734,0.0938734,0.0938734,0.0938734,0.0938734,-0.843873,0.0788404,-0.782988,1.15387,0.00303476,0.00389761,-0.00468556,-0.00776053,4.54281e-05,0.00134299,0.00331762,-0.00135775,-0.00353383,0.0938734,-0.000101194,0.00939925,-0.00104534,0.00629235,0.000306737,-1.60523e-05,-0.00104909,-0.0127407,0.00160976,-0.00163389,-0.000876009,0.00155706,-0.00855608,0.00051162,0.00417759,-0.00776053,4.54281e-05,0.00134299,0.00331762,-0.00135775,-0.00353383,0,0,0,0,0,0,0,0,0,-0.000346839,-3.24357e-05,-4.94436e-05,-0.000315509,-0.000302488,3.94445e-05,3.15098e-05,5.26139e-06,0.000356406,0.000328779,-2.7599e-05,-8.23811e-06
1601,0.00051179,0.0103832,0.00380203,-0.00149931,0.0199546,0.0199546,0.0199546,0.0199546,0.0199546,0.0199546,0.0199546,0.0199546,0.0199546,-0.980045,-0.374369,0.667136,1.24327,0.0103832,0.00380203,-0.00149931,0.00568512,-0.00139178,-0.00227309,0.0102989,0.00351424,-0.000653267,0.0199546,0.00278439,-0.0276313,-0.000219695,0.00914491,-0.00272473,-0.00384915,0.0303973,0.0199728,0.008173,0.00759042,0.000320874,0.00301799,-0.0205374,0.0057351,-0.031916,0.00568512,-0.00139178,-0.00227309,0.0102989,0.00351424,-0.000653267,0,0,0,0,0,0,0,0,0,-0.000595808,5.39758e-06,-0.000226043,-0.000232732,-0.000360841,0.000209928,5.54098e-05,4.49285e-05,0.000305638,0.00017151,-6.57732e-06,-1.15408e-05
1602,0.00051179,-0.00704566,0.00322385,-0.00310899,0.00661979,0.00661979,0.00661979,0.00661979,0.00661979,0.00661979,0.00661979,0.00661979,0.00661979,-0.99338,0.512918,0.929446,1.45388,-0.00704566,0.00322385,-0.00310899,-0.00246412,-0.00060402,-0.00201645,0.00990316,-0.00548674,0.005418,0.00661979,0.00105526,0.00388383,0.000262149,-0.00564559,-7.85235e-05,0.000331581,0.00502661,0.00324035,0.00154377,-0.00296088,-0.00030055,0.000124868,0.00538262,-0.00250374,-0.00204249,-0.00246412,-0.00060402,-0.00201645,0.00990316,-0.00548674,0.005418,0,0,0,0,0,0,0,0,0,-0.000651807,-2.19893e-05,0.000200551,-0.000332276,-0.000309372,-0.00020397,4.22897e-05,2.59507e-06,0.000273027,0.000315428,-6.04679e-05,-3.73697e-07
1603,0.00051179,-0.0127993,0.00365266,-0.00311235,0.0676144,0.0676144,0.0676144,0.0676144,0.0676144,0.0676144,0.0676144,0.0676144,0.0676144,-0.932386,-0.743286,-0.286083,1.22624,-0.0127993,0.00365266,-0.00311235,-0.000479042,0.00197156,0.0118073,-0.00605256,0.00959157,0.0130811,0.0676144,-0.133434,0.41097,-0.0294642,0.09459,0.107533,-0.0840808,-0.277665,-0.505704,0.00109307,-0.0491217,-0.0173709,0.107797,-0.049121,-0.0341827,0.17298,-0.000479042,0.00197156,0.0118073,-0.00605256,0.00959157,0.0130811,0,0,0,0,0,0,0,0,0,-0.000740066,-0.000484981,0.000560968,-0.000744989,-0.000364179,-0.000835895,0.000159788,-0.000217852,0.000296742,2.2254e-05,0.000140059,7.9078e-05
1604,0.00051179,0.0280385,0.032448,0.00434748,0.00886554,0.00886554,0.00886554,0.00886554,0.00886554,0.00886554,0.00886554,0.00886554,0.00886554,-0.991134,0.860259,0.386877,1.36824,0.0280385,0.032448,0.00434748,-0.00217769,-0.0128591,-0.00412384,0.00867005,-0.0383903,0.00854221,0.00886554,0.00718613,0.00126826,-0.0126127,-0.00845388,0.0312189,-0.00308152,-0.034573,-0.0605257,0.000643743,0.0049047,0.00822558,0.00167078,-0.0288989,-0.00126779,0.0285547,-0.00217769,-0.0128591,-0.00412384,0.00867005,-0.0383903,0.00854221,0,0,0,0,0,0,0,0,0,-0.000303037,1.22975e-07,0.000705507,-0.000500057,-0.000286544,-0.000960225,2.16497e-05,-1.31492e-05,0.00022696,0.000428003,-0.000288498,1.14529e-05
1605,0.00051179,0.00569692,0.00433779,-0.00467525,0.033068,0.033068,0.033068,0.033068,0.033068,0.033068,0.033068,0.033068,0.033068,-0.947231,0.961317,0.966932,1.66022,0.00569692,0.00433779,-0.00467525,0.00468855,-0.00397436,0.00180667,0.00604099,-0.000409054,0.00714554,0.033068,0.00135805,-0.000359376,-0.000366502,-0.00245513,-0.000504839,0.000208236,0.00233167,-0.0048327,-0.000778409,-0.00500026,-0.000428981,-0.00172007,0.0031176,-0.00183257,0.00406365,0.00468855,-0.00397436,0.00180667,0.00604099,-0.000409054,0.00714554,0,0,0,0,0,0,0,0,0,-0.000570014,1.10536e-05,0.000228502,-0.000464028,-0.000310058,-0.000271911,7.13348e-06,4.05673e-05,0.000258319,0.000484177,-4.89477e-05,7.38548e-06
1606,0.00051179,0.010863,0.00127057,0.00198664,0.0324384,0.0324384,0.0324384,0.0324384,0.0324384,0.0324384,0.0324384,0.0324384,0.0324384,-0.967562,-0.913558,-0.447382,1.40389,0.010863,0.00127057,0.00198664,-0.00228424,0.00306496,-0.00529702,0.00237827,0.0146112,-0.00904398,0.0324384,0.00634719,-0.00830441,-0.00549286,0.0404809,-0.044829,0.000942193,0.0702963,0.0422704,-0.000257062,0.00113084,-0.00577585,-0.0567553,-0.0428823,0.00145005,-0.0155276,-0.00228424,0.00306496,-0.00529702,0.00237827,0.0146112,-0.00904398,0,0,0,0,0,0,0,0,0,-0.000745125,2.19414e-05,0.000665449,-0.000664377,-0.000309134,-0.000689728,1.22327e-05,-0.000206878,0.000240795,0.000620829,0.000295231,-3.6343e-05
1607,0.00051179,0.00633043,0.00944424,-0.0108886,0.0874439,0.0874439,0.0874439,0.0874439,0.0874439,0.0874439,0.0874439,0.0874439,0.0874439,-0.912556,-0.0178124,0.291169,0.958048,0.00633043,0.00944424,-0.0108886,0.00395971,-0.00470638,0.00179974,-0.00500549,0.00523076,0.0101818,0.0874439,0.0292441,-0.114582,0.00642956,-0.0733342,0.048575,-0.0267471,-0.126766,0.0596767,0.0654989,0.000618535,-0.00449484,-0.0915244,0.0632715,0.0105532,0.229179,0.00395971,-0.00470638,0.00179974,-0.00500549,0.00523076,0.0101818,0,0,0,0,0,0,0,0,0,-0.000541218,3.3982e-05,-1.87397e-06,-0.000386626,-0.000350649,1.91058e-05,0.00017043,4.42067e-05,0.000303134,0.000137152,-3.68475e-05,-2.83621e-05
1608,0.00051179,0.00054574,0.0169882,-0.0242606,0.0894711,0.0894711,0.0894711,0.0894711,0.0894711,0.0894711,0.0894711,0.0894711,0.0894711,-0.910529,-0.529845,0.179516,1.06866,0.00054574,0.0169882,-0.0242606,0.0162583,0.00265229,0.0134202,-0.00140155,-0.00305795,0.00152305,0.0894711,0.467289,1.73479,-0.0135969,-0.377525,-0.365291,-0.144786,-1.75117,-1.37004,0.0735519,0.175756,0.024956,0.12259,0.18478,-0.023313,1.65284,0.0162583,0.00265229,0.0134202,-0.00140155,-0.00305795,0.00152305,0,0,0,0,0,0,0,0,0,-0.000338562,0.00180169,-0.000470834,-0.000497331,-0.000389839,0.000361388,-0.000255295,0.000191287,0.000326253,-0.000816322,2.76937e-05,-0.000724997
1609,0.00051179,-0.00481311,-0.000936703,-0.00210495,0.0621956,0.0621956,0.0621956,0.0621956,0.0621956,0.0621956,0.0621956,0.0621956,0.0621956,-0.9066,-0.0806648,-0.937804,1.30687,-0.00481311,-0.000936703,-0.00210495,-0.00857563,-0.00105321,0.00316239,-0.00771588,-0.00169586,-0.00110856,0.0621956,0.0012622,-0.00165019,-0.000554942,0.00297371,8.15427e-05,0.00100535,-0.00154892,0.00638176,-0.00146851,0.000617695,-9.95863e-06,0.000105047,-0.00265471,-0.00135555,0.00354882,-0.00857563,-0.00105321,0.00316239,-0.00771588,-0.00169586,-0.00110856,0,0,0,0,0,0,0,0,0,-0.000297002,-1.4688e-05,4.19328e-05,-0.000310137,-0.000302428,-5.80143e-05,-2.40428e-05,-3.32435e-06,0.000338301,0.000351814,-1.37338e-05,9.55861e-06
1610,0.00051179,0.005464,-0.00612365,0.0113185,0.0366815,0.0366815,0.0366815,0.0366815,0.0366815,0.0366815,0.0366815,0.0366815,0.0366815,-0.786681,-0.0651822,0.856296,1.16463,0.005464,-0.00612365,0.0113185,0.00573126,8.03429e-05,0.00131496,-0.0067766,0.000158899,0.00922561,0.0366815,0.000513926,-0.00824153,2.83793e-05,0.000818059,0.000437723,0.000243876,-0.00232055,0.00233981,-0.000802385,0.000407827,-0.000473173,-6.21962e-05,0.00489776,-0.000223015,-0.00893573,0.00573126,8.03429e-05,0.00131496,-0.0067766,0.000158899,0.00922561,0,0,0,0,0,0,0,0,0,-0.000682257,2.23773e-05,-4.42783e-05,-0.000236028,-0.000332529,4.53655e-05,-4.67435e-05,2.33539e-05,0.000343859,0.000251616,-2.64966e-05,3.61643e-05
1611,0.00051179,-0.00488198,-0.00025235,0.00613633,0.0923422,0.0923422,0.0923422,0.0923422,0.0923422,0.0923422,0.0923422,0.0923422,0.0923422,-0.907658,0.428206,0.682285,1.21355,-0.00488198,-0.00025235,0.00613633,-0.000509023,0.000331543,0.000566185,0.00434152,-0.000602111,0.0055184,0.0923422,0.000539318,-0.0137492,0.000385769,0.00255962,0.000772918,-0.00116618,0.0262369,0.0178582,-0.000583874,-1.02166e-06,-0.00121693,0.000311935,-0.00230624,0.00196731,-0.0326851,-0.000509023,0.000331543,0.000566185,0.00434152,-0.000602111,0.0055184,0,0,0,0,0,0,0,0,0,-0.000596501,-1.28566e-05,0.000230461,-0.000272734,-0.000332082,-0.000223288,5.78018e-06,1.52425e-05,0.000300013,0.000266734,-3.34329e-05,2.44205e-05
1612,0.00051179,0.0190294,0.00219777,-0.0187733,0.111488,0.111488,0.111488,0.111488,0.111488,0.111488,0.111488,0.111488,0.111488,-0.861488,0.358049,0.169281,0.948165,0.0190294,0.00219777,-0.0187733,0.00581467,5.91911e-05,0.00362666,0.0103595,0.00731803,0.00495027,0.111488,0.404358,1.12952,0.0840452,0.302442,-0.0854083,-0.163578,-2.09912,-1.06314,0.10212,-0.0907541,-0.0644039,-0.0211703,-0.213886,-0.00448413,2.13906,0.00581467,5.91911e-05,0.00362666,0.0103595,0.00731803,0.00495027,0,0,0,0,0,0,0,0,0,-0.000341848,0.00144727,0.000692007,-0.00099177,-0.000266457,0.000149037,-4.11996e-05,-0.000400952,0.000288114,-0.00060774,-0.000169907,-0.000601268
1613,0.00051179,-0.000371784,-0.000133358,-0.00187902,0.103743,0.103743,0.103743,0.103743,0.103743,0.103743,0.103743,0.103743,0.103743,-0.853743,-0.525392,0.419304,1.08661,-0.000371784,-0.000133358,-0.00187902,-0.00232372,0.00112645,0.00175916,-0.00862077,0.00327222,0.0104909,0.103743,0.0064996,-0.153628,0.000606902,0.00189849,-0.0129003,-0.0137922,0.17725,0.1669,-0.00789629,0.0408537,0.00126669,0.0331221,-0.0426189,0.0195141,-0.208493,-0.00232372,0.00112645,0.00175916,-0.00862077,0.00327222,0.0104909,0,0,0,0,0,0,0,0,0,-0.000483453,4.98074e-07,-0.000404898,-0.000346105,-0.000331039,0.000422232,-0.000102967,5.57508e-05,0.000319719,0.000225775,-1.03617e-05,0.000129644
1614,0.00051179,-0.00424525,0.00102363,-0.0119071,0.0944668,0.0944668,0.0944668,0.0944668,0.0944668,0.0944668,0.0944668,0.0944668,0.0944668,-0.844467,-0.145007,-0.551625,1.01904,-0.00424525,0.00102363,-0.0119071,-0.00316382,-0.00114295,7.51372e-05,-0.00138812,-0.000230844,0.000102091,0.0944668,0.00029929,0.016584,-0.00130563,0.00815927,-0.000343274,-0.00261069,0.0469868,-0.0119954,0.0144412,0.00508564,-0.00488178,-0.000560807,-0.0142685,-0.00278004,-0.0345189,-0.00316382,-0.00114295,7.51372e-05,-0.00138812,-0.000230844,0.000102091,0,0,0,0,0,0,0,0,0,-0.000423737,-2.29888e-05,8.28069e-05,-0.000330781,-0.000318522,-0.000107293,5.65995e-05,-4.63529e-05,0.000356004,0.000305426,-4.77339e-06,-2.20559e-05
1615,0.00051179,0.000449311,0.00190778,0.00555636,0.0465299,0.0465299,0.0465299,0.0465299,0.0465299,0.0465299,0.0465299,0.0465299,0.0465299,-0.95347,0.468695,0.621865,1.23105,0.000449311,0.00190778,0.00555636,0.00114296,-0.000179747,-0.00233201,0.00554688,-0.00508471,0.0018723,0.0465299,0.00362946,-0.0434952,-0.00124829,0.0169592,-0.00147457,-0.00467524,0.0406997,0.0445205,0.00597097,-0.0133605,-0.000658385,-0.00149903,-0.00550648,0.00642017,-0.0447571,0.00114296,-0.000179747,-0.00233201,0.00554688,-0.00508471,0.0018723,0,0,0,0,0,0,0,0,0,-0.000569098,-4.50259e-06,0.000270053,-0.000281187,-0.00032028,-0.000284333,2.92245e-05,-8.42317e-06,0.000285938,0.000211115,-4.90078e-05,1.30976e-05
1616,0.00051179,-0.00593925,0.0136733,0.0157445,0.0920125,0.0920125,0.0920125,0.0920125,0.0920125,0.0920125,0.0920125,0.0920125,0.0920125,-0.842013,0.903283,-0.522658,1.34092,-0.00593925,0.0136733,0.0157445,-0.00316273,-0.00775052,-0.00211974,-0.00105048,0.00799556,-0.00119893,0.0920125,0.000680223,0.00417288,-0.000965349,-0.00163659,0.00148592,0.000189841,0.00596598,0.000280443,0.00321548,-0.0403474,0.00119032,-0.0069476,0.0283107,0.00125684,-0.0147629,-0.00316273,-0.00775052,-0.00211974,-0.00105048,0.00799556,-0.00119893,0,0,0,0,0,0,0,0,0,-0.000697173,-1.2113e-05,-0.00053011,-0.000687775,-0.000243926,0.000442951,1.11245e-05,0.000241316,0.000297993,0.000668476,-0.000149457,5.89087e-07
1617,0.00051179,-0.00350881,-0.0183871,-0.00413954,0.0654903,0.0654903,0.0654903,0.0654903,0.0654903,0.0654903,0.0654903,0.0654903,0.0654903,-0.81549,-0.608798,0.26039,1.05046,-0.00350881,-0.0183871,-0.00413954,0.00845769,0.00536326,-0.0306411,-0.000372976,0.00251272,0.00515692,0.0654903,0.0548963,-1.7649,0.00901384,-0.0149011,-0.0819677,-0.0922875,1.61206,1.85037,-0.0485328,0.0579959,-0.00548042,0.280347,-0.0247077,0.131141,-1.88827,0.00845769,0.00536326,-0.0306411,-0.000372976,0.00251272,0.00515692,0,0,0,0,0,0,0,0,0,-0.000322275,0.000142832,-0.00046726,-0.00165877,-0.000302279,0.000611031,-0.000418467,2.99515e-05,0.000289865,0.000429487,-5.96285e-05,0.000507552
1618,0.00051179,-0.00242333,-0.00333294,0.00896578,0.0731639,0.0731639,0.0731639,0.0731639,0.0731639,0.0731639,0.0731639,0.0731639,0.0731639,-0.823164,0.75327,-0.473847,1.21225,-0.00242333,-0.00333294,0.00896578,-0.00530413,-0.00334268,0.000151113,0.00131738,0.0179181,0.000509607,0.0731639,-0.000746235,0.038461,-0.000420861,-0.0129008,-0.00297754,-0.00238601,0.07267,-0.0330601,0.0147293,-0.0578657,0.00298557,0.00632948,0.0740995,-0.0049144,-0.0879653,-0.00530413,-0.00334268,0.000151113,0.00131738,0.0179181,0.000509607,0,0,0,0,0,0,0,0,0,-0.000646986,-3.67036e-05,-0.000541654,-0.000585078,-0.000228012,0.000504018,7.37816e-05,0.000254769,0.000323333,0.000562729,-4.57333e-05,-2.84757e-05
1619,0.00051179,-0.00119853,0.00354876,-0.00550792,0.0621117,0.0621117,0.0621117,0.0621117,0.0621117,0.0621117,0.0621117,0.0621117,0.0621117,-0.937888,-0.293422,-0.663997,1.18601,-0.00119853,0.00354876,-0.00550792,-0.00304765,0.00411537,0.000388287,-0.00842114,0.000412679,0.000200301,0.0621117,-0.00190096,0.0317106,-0.00274407,0.0146058,-0.00120935,-0.0030132,0.0180535,-0.0293028,0.00312702,0.000539643,-0.00324123,-0.00340917,-0.0186942,-0.00176568,-0.00913642,-0.00304765,0.00411537,0.000388287,-0.00842114,0.000412679,0.000200301,0,0,0,0,0,0,0,0,0,-0.000404567,-1.11183e-05,0.000172745,-0.000321598,-0.000304097,-0.000159032,-1.28459e-05,-4.79541e-05,0.000329278,0.000295349,1.96686e-05,5.79785e-06
1620,0.00051179,0.00539864,-0.00316607,0.00313655,0.0191598,0.0191598,0.0191598,0.0191598,0.0191598,0.0191598,0.0191598,0.0191598,0.0191598,-0.98084,0.17376,-0.556705,1.14112,0.00539864,-0.00316607,0.00313655,-0.00312967,-0.000152194,0.00334595,-0.00149804,-0.00259165,0.00382242,0.0191598,-0.00502364,0.0547527,-0.00196963,-0.0212129,-0.000242859,-0.00849811,0.0261806,-0.0599085,-0.00339578,0.0148974,-0.00512706,-0.00107141,0.00948149,-0.00408908,-0.0282457,-0.00312967,-0.000152194,0.00334595,-0.00149804,-0.00259165,0.00382242,0,0,0,0,0,0,0,0,0,-0.000423059,-2.54045e-05,-0.000108869,-0.000321687,-0.000310654,8.76509e-05,-9.10705e-06,-4.80609e-05,0.000309847,0.000270166,-2.91262e-05,1.40288e-05
1621,0.00051179,0.00575181,-0.00657073,-0.00432444,0.108029,0.108029,0.108029,0.108029,0.108029,0.108029,0.108029,0.108029,0.108029,-0.858029,-0.0525451,-0.000978205,0.859637,0.00575181,-0.00657073,-0.00432444,0.00129406,-0.00922678,-0.00963334,-0.00211533,-0.00101023,0.00111251,0.108029,-0.00792693,0.0136687,0.00906301,0.000637635,-0.0264622,0.125286,0.601813,0.00704168,0.0175893,0.0202471,-0.0343434,0.441678,-0.014314,-0.016301,-1.03917,0.00129406,-0.00922678,-0.00963334,-0.00211533,-0.00101023,0.00111251,0,0,0,0,0,0,0,0,0,-0.000547916,-2.58404e-05,5.70352e-06,0.000873678,-0.000344062,-7.34116e-06,8.46938e-05,-0.000258073,0.000406407,0.000282846,-9.54626e-05,-6.86186e-05
1622,0.00051179,0.000852529,0.00284303,-0.00734191,0.0501428,0.0501428,0.0501428,0.0501428,0.0501428,0.0501428,0.0501428,0.0501428,0.0501428,-0.800143,0.58151,-0.779952,1.25965,0.000852529,0.00284303,-0.00734191,-0.0086661,-0.000320384,-0.000622574,0.00273838,0.00559686,-0.00241703,0.0501428,0.000500455,0.00525775,-0.000576966,0.00530845,0.000373198,-2.17818e-05,0.00291195,-0.00648348,0.00174276,-0.00128386,-0.000784487,0.00057681,-0.00686762,0.00101178,0.00385314,-0.0086661,-0.000320384,-0.000622574,0.00273838,0.00559686,-0.00241703,0,0,0,0,0,0,0,0,0,-0.000434078,-3.49555e-05,-0.000278502,-0.000420871,-0.000277901,0.000269529,2.82785e-05,0.000113787,0.0003483,0.000414428,-6.56633e-05,-1.15345e-06
1623,0.00051179,0.00392311,0.00561095,9.09455e-05,0.0796409,0.0796409,0.0796409,0.0796409,0.0796409,0.0796409,0.0796409,0.0796409,0.0796409,-0.920359,-0.0359001,0.574752,1.08567,0.00392311,0.00561095,9.09455e-05,-0.00304935,0.00173868,0.00122315,0.00547692,-0.00168869,0.00291352,0.0796409,0.00360264,-0.0374174,-0.000995032,0.0169679,-0.000170045,-0.00405457,0.0369098,0.0336643,0.00757561,-0.000137554,0.00114479,-0.00207079,-0.0224413,0.00674026,-0.0349299,-0.00304935,0.00173868,0.00122315,0.00547692,-0.00168869,0.00291352,0,0,0,0,0,0,0,0,0,-0.000622295,-2.40715e-05,-2.73373e-05,-0.000201984,-0.000341171,3.47738e-05,3.84247e-05,2.78051e-05,0.000307709,0.00017367,-3.32441e-05,2.14309e-05
1624,0.00051179,0.000290829,0.000297443,0.00177044,0.0595925,0.0595925,0.0595925,0.0595925,0.0595925,0.0595925,0.0595925,0.0595925,0.0595925,-0.809593,-0.558306,0.83722,1.29154,0.000290829,0.000297443,0.00177044,0.00226808,-0.00024203,-0.000104502,-0.00293945,-0.00384157,0.00474688,0.0595925,0.000541583,-0.00116822,6.72415e-05,-0.00278301,-0.000435395,0.000415478,0.000380594,0.00131279,-0.000755386,-0.000839634,-0.000760448,0.000510476,0.0033252,-0.000640903,-0.00266151,0.00226808,-0.00024203,-0.000104502,-0.00293945,-0.00384157,0.00474688,0,0,0,0,0,0,0,0,0,-0.000595607,1.0332e-05,-0.000273075,-0.000320965,-0.000319147,0.000271327,-2.21905e-05,-2.23853e-05,0.000353046,0.000324074,-2.3635e-05,1.68136e-05
1625,0.00051179,-0.041204,-0.00566843,0.0295631,0.0113312,0.0113312,0.0113312,0.0113312,0.0113312,0.0113312,0.0113312,0.0113312,0.0113312,-0.988669,-0.179093,0.0999217,1.00972,-0.041204,-0.00566843,0.0295631,0.0037694,-0.00462145,0.000887264,-0.00605342,-0.0112118,0.0363569,0.0113312,0.129136,0.74607,-0.00967657,-0.383628,0.0870019,0.0469594,0.0682282,-0.791868,0.0856091,-4.61903e-05,-0.0241027,0.0494263,0.389343,-0.0388185,-0.147218,0.0037694,-0.00462145,0.000887264,-0.00605342,-0.0112118,0.0363569,0,0,0,0,0,0,0,0,0,-0.000533827,0.00042222,-3.04274e-05,0.000162177,-0.000382984,-0.000112553,0.000155471,-0.000145352,0.000354782,0.00031629,-0.000207793,-0.000254615
1626,0.00051179,-0.00327744,-0.000434723,-0.00373544,0.106312,0.106312,0.106312,0.106312,0.106312,0.106312,0.106312,0.106312,0.106312,-0.856312,-0.446326,-0.675452,1.17844,-0.00327744,-0.000434723,-0.00373544,-0.00606648,0.00254464,0.00347077,0.000456637,-0.00416564,-0.00317898,0.106312,0.000133589,0.0173277,-0.0013188,0.0122942,-0.00157089,-0.00151611,0.0181982,-0.0124794,0.00457828,0.00366643,-0.00167584,-0.00427415,-0.0155259,-0.000146195,-0.0101886,-0.00606648,0.00254464,0.00347077,0.000456637,-0.00416564,-0.00317898,0,0,0,0,0,0,0,0,0,-0.000436105,-2.47916e-05,0.000269932,-0.000338449,-0.000321532,-0.000257673,3.00474e-05,-9.25762e-05,0.000350729,0.000357996,3.41615e-05,-1.1753e-05
1627,0.00051179,0.00138777,0.00103886,0.00167179,0.118943,0.118943,0.118943,0.118943,0.118943,0.118943,0.118943,0.118943,0.118943,-0.881057,0.0445443,0.678041,1.11265,0.00138777,0.00103886,0.00167179,-0.00449268,-0.000406266,0.000371922,0.00283642,-0.000558107,0.00364953,0.118943,0.000709608,-0.0109833,0.000160165,0.00104044,0.000460521,-0.000940666,0.0209179,0.00913497,-0.00162031,-8.71049e-06,-0.000888305,-0.00110809,-0.00207059,0.00216685,-0.0214816,-0.00449268,-0.000406266,0.000371922,0.00283642,-0.000558107,0.00364953,0,0,0,0,0,0,0,0,0,-0.000644438,-2.26647e-05,2.22391e-05,-0.000208634,-0.000337565,-2.47002e-05,2.33125e-06,1.01678e-05,0.000315182,0.000202947,-2.46319e-05,2.53325e-05
1628,0.00051179,-0.00098688,-0.000520647,0.00314378,0.0736126,0.0736126,0.0736126,0.0736126,0.0736126,0.0736126,0.0736126,0.0736126,0.0736126,-0.926387,-0.104545,0.833278,1.25039,-0.00098688,-0.000520647,0.00314378,-0.0053025,-0.00148992,-0.00117351,0.00644622,-0.000773584,0.00329782,0.0736126,0.00104035,-0.00766318,0.000337787,-0.00469663,0.000249084,-0.000393871,0.0120499,0.00840098,3.52971e-06,0.000733837,-0.000479527,-0.000388434,0.00448344,-0.00011627,-0.0148053,-0.0053025,-0.00148992,-0.00117351,0.00644622,-0.000773584,0.00329782,0,0,0,0,0,0,0,0,0,-0.000674002,-2.75059e-05,-6.65511e-05,-0.000237285,-0.000338638,5.50297e-05,2.60536e-05,1.44896e-05,0.000312254,0.000221611,-2.70207e-05,9.71256e-06
1629,0.00051179,0.009027,-0.0068506,0.00839001,0.0400147,0.0400147,0.0400147,0.0400147,0.0400147,0.0400147,0.0400147,0.0400147,0.0400147,-0.959985,-0.719265,-0.179092,1.21284,0.009027,-0.0068506,0.00839001,0.0180696,0.00775807,0.0410711,-0.0127721,0.0165023,-0.000417218,0.0400147,-0.38453,-1.70581,-0.067621,-0.0207903,0.318688,-0.0500027,-0.968298,1.3781,-0.0338327,-0.197814,-0.00284294,0.0445338,0.225455,0.0387507,0.915374,0.0180696,0.00775807,0.0410711,-0.0127721,0.0165023,-0.000417218,0,0,0,0,0,0,0,0,0,-0.000749744,-0.00139992,0.000399104,2.56227e-05,-0.000350529,-0.000997734,0.000199359,-0.000132438,0.000340983,-0.000114939,0.000269031,0.000624051
1630,0.00051179,-0.0133004,0.0131011,0.0218359,0.0402949,0.0402949,0.0402949,0.0402949,0.0402949,0.0402949,0.0402949,0.0402949,0.0402949,-0.959705,-0.518395,-0.106652,1.09597,-0.0133004,0.0131011,0.0218359,0.00916571,-0.00824607,-0.0122783,-0.0269866,-0.00703406,-0.00806466,0.0402949,-0.402635,-2.7919,0.0240836,0.475687,0.42614,0.0279845,0.000500935,2.37906,-0.0504503,-0.1428,-0.0203866,-0.175687,-0.345988,0.0734767,0.153351,0.00916571,-0.00824607,-0.0122783,-0.0269866,-0.00703406,-0.00806466,0,0,0,0,0,0,0,0,0,-0.000680253,-0.00149947,0.000306708,0.000238737,-0.000333929,-0.000148333,8.06935e-05,-0.000267456,0.000427954,-8.16755e-05,-6.75079e-06,0.000794939
1631,0.00051179,-0.00473533,0.00266878,0.00209713,0.0419931,0.0419931,0.0419931,0.0419931,0.0419931,0.0419931,0.0419931,0.0419931,0.0419931,-0.958007,0.591129,0.881479,1.42976,-0.00473533,0.00266878,0.00209713,-0.00383068,-0.00157669,-0.00272553,0.00644199,-0.0048237,0.00474738,0.0419931,0.000983194,0.000819448,0.000489272,-0.00660014,-5.01826e-05,0.00036237,0.00233177,0.00396607,0.000261797,-0.00140975,-0.00046291,0.000528691,0.00534111,-0.00192261,-0.00495758,-0.00383068,-0.00157669,-0.00272553,0.00644199,-0.0048237,0.00474738,0,0,0,0,0,0,0,0,0,-0.000619449,-2.19463e-05,0.000227463,-0.000351569,-0.000314796,-0.000238337,2.581e-05,9.30293e-06,0.000279248,0.000327937,-6.2169e-05,6.41492e-06
1632,0.00051179,0.00221864,-0.0044264,0.00252326,0.0740317,0.0740317,0.0740317,0.0740317,0.0740317,0.0740317,0.0740317,0.0740317,0.0740317,-0.925968,0.44979,-0.830225,1.3225,0.00221864,-0.0044264,0.00252326,-0.00098955,-0.00177256,0.000274114,-0.00405022,-0.00224122,0.00241313,0.0740317,-0.000324175,0.00525537,-0.00117978,0.00710261,0.000457688,0.00104597,-0.00771389,-0.00793169,-0.00123352,-0.000256755,-6.78841e-06,0.000840639,-0.00241945,-0.00116609,0.00434999,-0.00098955,-0.00177256,0.000274114,-0.00405022,-0.00224122,0.00241313,0,0,0,0,0,0,0,0,0,-0.000380166,-3.9505e-07,-0.000211617,-0.000369747,-0.000312055,0.000182093,-2.02451e-05,6.03698e-05,0.000306949,0.000382948,-8.28499e-05,1.24087e-05
1633,0.00051179,-0.00213736,-2.53767e-05,0.00136907,0.0280355,0.0280355,0.0280355,0.0280355,0.0280355,0.0280355,0.0280355,0.0280355,0.0280355,-0.971965,-0.368189,0.574028,1.18734,-0.00213736,-2.53767e-05,0.00136907,0.00495616,-0.000622466,-0.00286718,0.00600956,0.00139377,-0.00144627,0.0280355,0.00629009,-0.0616066,-0.00143128,0.0142211,-0.00364096,-0.0072189,0.0536588,0.0673849,0.0127939,0.0173963,0.00261828,0.00153901,-0.0315921,0.00934682,-0.0565668,0.00495616,-0.000622466,-0.00286718,0.00600956,0.00139377,-0.00144627,0,0,0,0,0,0,0,0,0,-0.000575937,1.24425e-05,-0.000242277,-0.000228082,-0.000363434,0.00022174,5.02286e-05,5.44203e-05,0.000307582,0.000127221,-1.42998e-05,-4.28602e-06
1634,0.00051179,0.00818236,0.0220296,-0.00958351,0.0131778,0.0131778,0.0131778,0.0131778,0.0131778,0.0131778,0.0131778,0.0131778,0.0131778,-0.763178,0.287575,0.523354,0.96904,0.00818236,0.0220296,-0.00958351,0.000319279,0.00784819,0.00699494,-0.00290003,0.000439654,-0.000836603,0.0131778,2.64198e-05,-0.015272,8.858e-05,-0.00919782,-0.00214808,-0.000176378,0.0425422,0.0092377,-0.0162936,4.04555e-05,1.42818e-05,0.00251965,-0.0128722,0.00315447,-0.0354783,0.000319279,0.00784819,0.00699494,-0.00290003,0.000439654,-0.000836603,0,0,0,0,0,0,0,0,0,-0.000584953,2.08016e-05,0.000182673,-0.000270525,-0.000360096,-0.000103306,-7.68949e-05,1.20469e-05,0.000335231,0.000338711,-7.50758e-06,3.06625e-05
1635,0.00051179,-0.0057791,0.00142265,0.011128,0.0224425,0.0224425,0.0224425,0.0224425,0.0224425,0.0224425,0.0224425,0.0224425,0.0224425,-0.977557,0.501299,0.762193,1.33711,-0.0057791,0.00142265,0.011128,-0.000401132,-0.00244212,-0.00193234,0.00966816,-0.00518492,0.00114733,0.0224425,0.000623301,-0.0159157,0.00111157,-0.00140242,0.00111604,-0.00155706,0.0317261,0.0205788,0.00137336,-0.00317659,-0.00131839,0.000250472,0.00315637,0.00126252,-0.0431046,-0.000401132,-0.00244212,-0.00193234,0.00966816,-0.00518492,0.00114733,0,0,0,0,0,0,0,0,0,-0.000601254,-1.46663e-05,0.000241423,-0.000304436,-0.000313247,-0.000254728,3.94304e-05,-3.40561e-06,0.000278756,0.000269542,-6.16275e-05,-3.72789e-06
1636,0.00051179,0.0162434,-0.0202121,0.0481515,0.0456422,0.0456422,0.0456422,0.0456422,0.0456422,0.0456422,0.0456422,0.0456422,0.0456422,-0.795642,-0.738268,0.365855,1.1454,0.0162434,-0.0202121,0.0481515,0.0018178,-0.00122065,0.0113319,-0.0226028,-0.0287009,-0.00305371,0.0456422,0.0023178,-0.111059,0.00303376,-0.0615455,-0.00207757,-0.00557487,0.145787,0.0968933,-0.0235912,-0.0674015,-0.0110063,0.0346915,0.149159,0.0177333,-0.22863,0.0018178,-0.00122065,0.0113319,-0.0226028,-0.0287009,-0.00305371,0,0,0,0,0,0,0,0,0,-0.000353865,5.2269e-05,-0.000588864,-0.000519264,-0.000262136,0.000606995,-0.000199379,-0.0002431,0.000348479,0.000576835,-0.000153972,0.000104989
1637,0.00051179,0.00333696,-0.00206539,-0.00671109,0.0917721,0.0917721,0.0917721,0.0917721,0.0917721,0.0917721,0.0917721,0.0917721,0.0917721,-0.841772,-0.52361,-0.825724,1.29018,0.00333696,-0.00206539,-0.00671109,-0.00691765,0.00214386,0.00279924,-0.000114156,-0.00305559,-0.00138553,0.0917721,0.000217095,0.00767288,-0.000767402,0.0039264,-0.00018768,0.000458073,0.000187623,-0.0108222,-0.000539856,0.0015247,-0.00031663,-0.000713107,-0.00338571,4.17791e-05,0.00723657,-0.00691765,0.00214386,0.00279924,-0.000114156,-0.00305559,-0.00138553,0,0,0,0,0,0,0,0,0,-0.000403844,-2.34663e-05,0.000263638,-0.0003743,-0.000313187,-0.000249873,6.76646e-06,-8.49477e-05,0.000353642,0.000406873,5.12254e-05,3.31776e-06
1638,0.00051179,0.0167399,0.0110357,-0.00502542,0.0624805,0.0624805,0.0624805,0.0624805,0.0624805,0.0624805,0.0624805,0.0624805,0.0624805,-0.937519,0.151317,0.288136,0.992402,0.0167399,0.0110357,-0.00502542,0.00740159,-0.00337313,-0.000308962,0.000296051,0.00561785,0.0121827,0.0624805,0.0467352,-0.117057,0.0170645,-0.0723203,0.0468337,-0.0312987,-0.196748,0.0534837,0.0608232,-0.0468756,-0.0181712,-0.0805705,0.10816,0.00587868,0.282344,0.00740159,-0.00337313,-0.000308962,0.000296051,0.00561785,0.0121827,0,0,0,0,0,0,0,0,0,-0.000530042,0.000116856,0.000130349,-0.000364257,-0.000322873,6.56442e-06,0.000151768,-9.67526e-05,0.000294261,4.81804e-05,-2.87805e-05,-6.35208e-05
1639,0.00051179,-0.0023087,-0.00377206,0.00430775,0.0256931,0.0256931,0.0256931,0.0256931,0.0256931,0.0256931,0.0256931,0.0256931,0.0256931,-0.974307,-0.849802,0.873818,1.56045,-0.0023087,-0.00377206,0.00430775,-0.00508982,0.00176369,-0.00204627,0.00212076,0.00850008,0.00759007,0.0256931,0.00143172,-0.00389501,-2.902e-05,-0.00174932,0.00144278,0.000293296,0.00239958,0.00476093,0.000504268,0.0013622,-0.000200361,-0.00390806,0.00415918,-0.00245434,-0.00279928,-0.00508982,0.00176369,-0.00204627,0.00212076,0.00850008,0.00759007,0,0,0,0,0,0,0,0,0,-0.000519328,-2.30243e-05,-0.000320545,-0.000435446,-0.000369215,0.000337892,8.39132e-06,3.10488e-05,0.000288203,0.000417916,5.19484e-05,2.09448e-05
1640,0.00051179,0.059536,-0.00758862,-0.0518709,0.0565326,0.0565326,0.0565326,0.0565326,0.0565326,0.0565326,0.0565326,0.0565326,0.0565326,-0.806533,-0.273001,0.0593914,0.853552,0.059536,-0.00758862,-0.0518709,0.00895189,0.00944214,0.00852164,-0.00611588,-0.00795171,-0.000346214,0.0565326,0.46714,3.90471,-0.163063,-2.12049,0.41957,0.1851,0.541904,-4.38381,0.16305,-0.168455,-0.0854652,0.12781,2.29653,-0.100425,-0.617843,0.00895189,0.00944214,0.00852164,-0.00611588,-0.00795171,-0.000346214,0,0,0,0,0,0,0,0,0,-0.000356801,0.00176632,-0.000854191,0.00264045,-0.000437433,-0.000682014,0.00017053,-0.000925384,0.000399217,-0.000704232,-8.78508e-06,-0.001118
1641,0.00051179,-0.00260782,0.000551833,-0.0227623,0.0120696,0.0120696,0.0120696,0.0120696,0.0120696,0.0120696,0.0120696,0.0120696,0.0120696,-0.98793,0.228149,-0.460931,1.11378,-0.00260782,0.000551833,-0.0227623,-0.00140949,-0.000228344,0.000550243,0.0171881,-0.00815763,0.00792106,0.0120696,-0.0218961,0.197393,0.00115032,-0.0154557,-0.00374056,-0.0225171,0.103973,-0.191045,-0.026,0.0137149,-0.00397771,-0.0141485,0.00118901,-0.0110065,-0.0670622,-0.00140949,-0.000228344,0.000550243,0.0171881,-0.00815763,0.00792106,0,0,0,0,0,0,0,0,0,-0.000461958,-7.59092e-05,-0.000131511,-0.000360696,-0.000319267,0.000140731,-3.44064e-06,-0.000101292,0.000308923,0.000141027,-2.00618e-05,2.51914e-05
1642,0.00051179,0.0347519,-0.282279,0.317338,0.00269247,0.00269247,0.00269247,0.00269247,0.00269247,0.00269247,0.00269247,0.00269247,0.00269247,-0.721265,0.208907,-0.126061,0.761418,0.0347519,-0.282279,0.317338,-0.211884,-0.222822,-0.437206,0.11721,-0.144241,-0.0549789,0.00269247,-0.308813,16.3899,-0.178311,3.66156,-0.584406,-0.262324,10.6681,-15.8402,-0.513798,-0.323573,-0.154095,-0.524315,-3.05571,-0.252175,-10.4612,-0.211884,-0.222822,-0.437206,0.11721,-0.144241,-0.0549789,0,0,0,0,0,0,0,0,0,-0.00087589,-0.00119067,-0.0018045,-0.00377482,-0.000498498,-0.00220684,-0.000570124,-0.00193242,0.000253528,-0.00322048,-0.00105094,-0.000122958
1643,0.00051179,-0.00216747,-0.00641612,0.0112752,0.00205997,0.00205997,0.00205997,0.00205997,0.00205997,0.00205997,0.00205997,0.00205997,0.00205997,-0.99794,0.623453,-0.940273,1.50622,-0.00216747,-0.00641612,0.0112752,-0.0027105,0.000505,0.00372869,-0.0109054,-0.0078189,0.00166376,0.00205997,0.00237192,-0.0114757,-0.000841908,0.00339619,-2.15039e-05,0.0012322,-0.0071376,0.0136646,-0.000835331,0.00233685,0.00033005,6.16527e-05,0.000683076,-0.00202424,-0.0041993,-0.0027105,0.000505,0.00372869,-0.0109054,-0.0078189,0.00166376,0,0,0,0,0,0,0,0,0,-0.000376329,1.26608e-05,-0.000232294,-0.000434737,-0.000340575,0.000228925,-4.43501e-05,8.09304e-05,0.000254586,0.000484346,-0.000155819,1.25512e-05
1644,0.00051179,-0.00125477,-0.000981178,-0.0137773,0.0333729,0.0333729,0.0333729,0.0333729,0.0333729,0.0333729,0.0333729,0.0333729,0.0333729,-0.966627,0.272182,-0.768676,1.26464,-0.00125477,-0.000981178,-0.0137773,-0.0029189,-0.00106029,0.000366889,-0.00810569,-0.002589,0.00184199,0.0333729,-0.00176363,0.0253637,-0.00230297,0.0140021,0.000732605,2.24411e-05,0.0112233,-0.0248415,-0.000280442,-0.000101032,-0.000932539,0.00388219,-0.0129199,-0.00175976,-0.00132823,-0.0029189,-0.00106029,0.000366889,-0.00810569,-0.002589,0.00184199,0,0,0,0,0,0,0,0,0,-0.000368856,-8.42831e-06,-0.000150453,-0.000332305,-0.000310892,0.000116821,-2.69463e-05,2.97361e-05,0.000306949,0.000336198,-6.49516e-05,1.53955e-05
1645,0.00051179,0.0248474,0.00377781,-0.0190638,0.0764079,0.0764079,0.0764079,0.0764079,0.0764079,0.0764079,0.0764079,0.0764079,0.0764079,-0.673592,-0.118116,-0.00132637,0.683871,0.0248474,0.00377781,-0.0190638,0.00839649,-0.013528,0.0479013,0.00840476,-0.00689086,0.00203408,0.0764079,-0.0100903,0.011637,0.0120828,-0.0743229,-0.10736,0.00588299,-2.48231,0.070876,-0.00204425,0.153788,-0.124855,1.14244,-0.083243,-0.00682034,1.35893,0.00839649,-0.013528,0.0479013,0.00840476,-0.00689086,0.00203408,0,0,0,0,0,0,0,0,0,-0.00055439,-8.33102e-06,6.40201e-05,0.00351154,-0.000350798,-7.84725e-05,3.19405e-05,-0.00255537,0.000279531,-0.0029737,0.00123792,-2.37934e-05
1646,0.00051179,-0.0196705,-0.00298703,-0.0518514,0.111011,0.111011,0.111011,0.111011,0.111011,0.111011,0.111011,0.111011,0.111011,-0.861011,-0.406298,-0.207271,0.974361,-0.0196705,-0.00298703,-0.0518514,-0.00626906,0.0052643,0.0108227,0.00219675,-0.000474824,-0.00910045,0.111011,-0.310869,1.07203,0.0454615,-0.233557,0.101254,-0.217001,-0.990715,-1.15361,-0.0716423,-0.106171,0.0428518,0.0240436,0.342715,-0.086838,1.01852,-0.00626906,0.0052643,0.0108227,0.00219675,-0.000474824,-0.00910045,0,0,0,0,0,0,0,0,0,-0.000730075,-0.00102893,0.00060671,-0.00167152,-0.000313962,-9.9452e-05,0.000209528,0.000275768,0.000308424,-0.000390261,0.000148002,7.70638e-05
1647,0.00051179,-0.0613861,0.337038,-0.377533,0.0107025,0.0107025,0.0107025,0.0107025,0.0107025,0.0107025,0.0107025,0.0107025,0.0107025,-0.70933,-0.250542,0.0892975,0.757558,-0.0613861,0.337038,-0.377533,-0.027077,0.0316598,-0.0288342,-0.0565506,-0.0236999,0.125581,0.0107025,1.41328,14.9416,-0.626686,-8.25407,1.98255,-0.251998,-2.02085,-16.8628,0.765914,-1.24402,0.0515675,-0.146482,9.16105,0.233657,2.54487,-0.027077,0.0316598,-0.0288342,-0.0565506,-0.0236999,0.125581,0,0,0,0,0,0,0,0,0,-5.49257e-05,0.00409856,-0.00272342,0.00206122,-0.000611717,-0.00322684,0.000714349,-0.00107607,0.000186883,-0.00486954,0.00135475,-0.00103628
1648,0.00051179,-0.00190544,0.0466965,-0.113268,0.0141265,0.0141265,0.0141265,0.0141265,0.0141265,0.0141265,0.0141265,0.0141265,0.0141265,-0.846829,-0.985873,-0.0810501,1.30217,-0.00190544,0.0466965,-0.113268,-0.0714689,0.0470363,-0.0357891,0.0219058,0.0142863,0.0843905,0.0141265,-0.619938,-6.69807,-0.0340776,-0.303151,-2.03136,0.618147,1.54016,8.73134,-0.00420882,-0.16781,0.0148307,0.487564,0.424265,0.499751,-1.91445,-0.0714689,0.0470363,-0.0357891,0.0219058,0.0142863,0.0843905,0,0,0,0,0,0,0,0,0,-0.00101674,-0.00335369,0.00200963,0.00309948,-0.000549668,-0.00188005,0.000191833,0.00120657,0.000621863,0.0027241,-0.000915398,0.00302406
1649,0.00051179,0.0114024,-0.00148572,0.00319055,0.0930036,0.0930036,0.0930036,0.0930036,0.0930036,0.0930036,0.0930036,0.0930036,0.0930036,-0.843004,-0.77729,0.463752,1.23689,0.0114024,-0.00148572,0.00319055,0.00109774,-0.000156526,0.00261464,-0.00440099,-0.014589,0.00425923,0.0930036,0.00333263,-0.0313266,0.00151093,-0.0348886,3.55545e-05,-0.00224886,0.0534147,0.0198887,-0.0049112,-0.0179142,-0.00469002,0.00459449,0.0542885,0.00525359,-0.0611997,0.00109774,-0.000156526,0.00261464,-0.00440099,-0.014589,0.00425923,0,0,0,0,0,0,0,0,0,-0.000376649,1.68084e-05,-0.000562688,-0.000429688,-0.000305438,0.000576232,-5.19044e-05,-0.000157796,0.000335902,0.000433346,-3.49942e-05,4.22206e-05
1650,0.00051179,0.0301871,-0.00352342,-0.0502592,0.0907396,0.0907396,0.0907396,0.0907396,0.0907396,0.0907396,0.0907396,0.0907396,0.0907396,-0.90926,0.526018,0.1941,1.06823,0.0301871,-0.00352342,-0.0502592,0.012605,0.00142938,0.0162742,0.0185671,0.00359387,0.00108191,0.0907396,0.414571,1.10939,0.0148043,0.192926,-0.33577,-0.158398,-1.67752,-0.803809,0.0557082,-0.183851,-0.0349601,0.129745,-0.00555155,-0.0070091,1.59803,0.012605,0.00142938,0.0162742,0.0185671,0.00359387,0.00108191,0,0,0,0,0,0,0,0,0,-0.000341915,0.00156412,0.000456625,-0.000646936,-0.000295008,-0.000294289,-0.000200382,-0.000244487,0.000286996,-0.000774299,-6.91752e-05,-0.000601395
1651,0.00051179,-0.00310198,0.00160145,0.00513324,0.0443245,0.0443245,0.0443245,0.0443245,0.0443245,0.0443245,0.0443245,0.0443245,0.0443245,-0.897998,-0.955676,0.717099,1.49464,-0.00310198,0.00160145,0.00513324,0.00177486,-0.00338161,-0.00735271,0.00200622,0.000611869,0.00995077,0.0443245,0.00123538,-0.00338926,0.000169046,-0.00199976,0.00169999,-0.000499412,0.00506221,0.00479125,0.000134034,0.00129368,5.52237e-05,-0.0102785,-0.000895363,-0.0012402,8.30361e-05,0.00177486,-0.00338161,-0.00735271,0.00200622,0.000611869,0.00995077,0,0,0,0,0,0,0,0,0,-0.000407539,-9.42345e-07,-0.000422059,-0.000515053,-0.000345284,0.000389934,-5.29227e-06,1.6085e-06,0.000313699,0.000436532,5.06243e-06,2.75593e-05
1652,0.00051179,-0.0191943,-0.00358829,0.0141802,0.0227639,0.0227639,0.0227639,0.0227639,0.0227639,0.0227639,0.0227639,0.0227639,0.0227639,-0.772764,0.0351813,-0.449669,0.894765,-0.0191943,-0.00358829,0.0141802,-0.00191315,0.000938719,-0.0010426,0.00373616,-0.000771669,0.00945866,0.0227639,-0.000688359,0.0246397,-0.000191681,0.00745139,0.00020296,-0.000735402,0.0323067,-0.00564835,0.0271382,0.0102221,-0.00664112,0.000630807,-0.0140852,-0.00743277,-0.0471178,-0.00191315,0.000938719,-0.0010426,0.00373616,-0.000771669,0.00945866,0,0,0,0,0,0,0,0,0,-0.000457279,-4.79676e-05,-3.45088e-05,-0.000391833,-0.000310594,4.19792e-05,0.000119412,-4.54209e-05,0.000376396,0.000374053,-2.8707e-05,-2.48306e-05
1653,0.00051179,-0.00207406,-0.00556157,0.00526077,0.0791287,0.0791287,0.0791287,0.0791287,0.0791287,0.0791287,0.0791287,0.0791287,0.0791287,-0.920871,-0.884564,0.665808,1.44006,-0.00207406,-0.00556157,0.00526077,0.00179047,-0.00220377,-0.00216439,0.00312732,0.00701877,0.00929389,0.0791287,0.00192346,-0.0110336,0.00044889,-0.00448629,0.00320606,-0.00117407,0.0173919,0.00990161,0.000381185,0.00624722,-0.000740732,-0.0108238,0.00380064,-0.00063052,-0.0118289,0.00179047,-0.00220377,-0.00216439,0.00312732,0.00701877,0.00929389,0,0,0,0,0,0,0,0,0,-0.000413537,2.39879e-07,-0.000455324,-0.000471063,-0.000355328,0.000437775,-7.87261e-07,1.39416e-05,0.000304163,0.000437678,4.88388e-05,2.49871e-05
1654,0.00051179,-0.00197152,-0.00049653,0.00724614,0.0472397,0.0472397,0.0472397,0.0472397,0.0472397,0.0472397,0.0472397,0.0472397,0.0472397,-0.95276,-0.881484,0.815622,1.53297,-0.00197152,-0.00049653,0.00724614,-0.0020859,0.000615031,-0.0031196,0.003004,0.00752961,0.00921134,0.0472397,0.00139119,-0.00716277,0.000186034,-0.00290421,0.0018335,-4.22858e-05,0.00461197,0.0073008,0.000132067,-5.1323e-07,-0.000289633,-0.00599899,0.00340125,-0.0019444,-0.00585912,-0.0020859,0.000615031,-0.0031196,0.003004,0.00752961,0.00921134,0,0,0,0,0,0,0,0,0,-0.000483461,-1.46754e-05,-0.000352635,-0.000450901,-0.000363851,0.000360645,4.47843e-06,3.30882e-05,0.000294477,0.000419282,3.93116e-05,2.51329e-05
1655,0.00051179,0.00865626,0.00148442,-0.00579208,0.0500599,0.0500599,0.0500599,0.0500599,0.0500599,0.0500599,0.0500599,0.0500599,0.0500599,-0.80006,-0.31521,-0.295965,0.909422,0.00865626,0.00148442,-0.00579208,-8.62926e-05,0.00283991,-0.0154345,-0.00219788,0.0282248,-0.00366989,0.0500599,-0.00707547,0.42281,-0.00116431,-0.0381744,0.00387127,-0.0231723,0.75755,-0.435337,0.0181588,-0.0816333,-0.00451784,0.00157388,0.118323,-0.0530569,-0.753331,-8.62926e-05,0.00283991,-0.0154345,-0.00219788,0.0282248,-0.00366989,0,0,0,0,0,0,0,0,0,-0.000576191,1.94923e-05,0.000324083,-0.000983481,-0.000336552,-0.000307327,0.000135106,0.000173235,0.00035321,0.000597414,6.38344e-05,-0.000228333
1656,0.00051179,-0.0299839,0.0142296,0.0359308,0.0202254,0.0202254,0.0202254,0.0202254,0.0202254,0.0202254,0.0202254,0.0202254,0.0202254,-0.979775,-0.456894,-0.206667,1.10065,-0.0299839,0.0142296,0.0359308,0.0174742,-0.0132198,0.0343979,-0.0245952,-0.0188082,-0.0117723,0.0202254,-0.328814,-0.730675,0.0236176,0.314553,0.227982,-0.116982,-0.670851,0.532677,-0.0661045,-0.0298767,0.00840812,-0.000439733,-0.298906,0.00656847,0.63536,0.0174742,-0.0132198,0.0343979,-0.0245952,-0.0188082,-0.0117723,0,0,0,0,0,0,0,0,0,-0.000613607,-0.0010868,0.00032095,-0.000375941,-0.000308955,-0.000216972,1.63981e-05,-8.83957e-05,0.000367276,-0.000449895,-1.56054e-05,0.000443877
1657,0.00051179,-0.00420981,-0.0018235,-0.00195258,0.0965691,0.0965691,0.0965691,0.0965691,0.0965691,0.0965691,0.0965691,0.0965691,0.0965691,-0.846569,0.701703,0.68742,1.29677,-0.00420981,-0.0018235,-0.00195258,0.000403284,-0.0025555,0.001263,-0.000263931,0.00529778,0.00616341,0.0965691,0.000146881,-0.00231108,0.000625558,-0.00012043,0.000162809,9.61646e-05,0.0106072,0.00635808,-0.000922726,0.00491335,-0.000849667,0.00191595,-0.00296942,-0.000386573,-0.0105706,0.000403284,-0.0025555,0.001263,-0.000263931,0.00529778,0.00616341,0,0,0,0,0,0,0,0,0,-0.000519462,-3.18034e-06,0.000328891,-0.000380372,-0.00035193,-0.00034819,-1.18645e-05,6.9541e-05,0.000312909,0.000393964,-2.50598e-05,2.2953e-05
1658,0.00051179,-6.42741e-06,-0.00145296,0.00330658,0.0674676,0.0674676,0.0674676,0.0674676,0.0674676,0.0674676,0.0674676,0.0674676,0.0674676,-0.817468,-0.710941,0.907115,1.41299,-6.42741e-06,-0.00145296,0.00330658,0.000313808,0.00163207,-0.000927478,-5.80866e-05,-0.00279143,0.00462917,0.0674676,0.000980511,-0.00120494,-0.000201099,-0.00199871,0.000417592,0.000441831,-0.000685872,0.000793778,-0.00095992,-0.000371336,-0.00057022,0.00028075,0.003823,-0.000879865,-0.00290145,0.000313808,0.00163207,-0.000927478,-5.80866e-05,-0.00279143,0.00462917,0,0,0,0,0,0,0,0,0,-0.000577874,1.82665e-06,-0.000287067,-0.000394783,-0.000320608,0.000301377,-9.73497e-06,-2.4573e-05,0.00035391,0.000389927,-9.04349e-06,1.41016e-05
1659,0.00051179,0.0129581,0.00745371,-0.012994,0.0694976,0.0694976,0.0694976,0.0694976,0.0694976,0.0694976,0.0694976,0.0694976,0.0694976,-0.930502,0.332777,-0.408789,1.06943,0.0129581,0.00745371,-0.012994,-0.0045477,-0.000156334,0.000723161,0.00994963,-0.00684115,-0.00144829,0.0694976,-0.0296804,0.33826,0.000954993,0.0140101,0.00467357,-0.0328397,0.210026,-0.355891,-0.00940611,0.0393182,-0.00789171,0.000480329,-0.0607819,-0.0232073,-0.197513,-0.0045477,-0.000156334,0.000723161,0.00994963,-0.00684115,-0.00144829,0,0,0,0,0,0,0,0,0,-0.000505619,-0.000103825,-0.000213495,-0.000442599,-0.000310564,0.000221481,7.00332e-05,-7.81961e-05,0.000310563,0.000121434,-6.91325e-05,-5.59625e-05
1660,0.00051179,0.00549619,0.0020546,-0.00674703,0.0314045,0.0314045,0.0314045,0.0314045,0.0314045,0.0314045,0.0314045,0.0314045,0.0314045,-0.781404,0.659107,-0.839411,1.32273,0.00549619,0.0020546,-0.00674703,-0.00830107,-0.000722114,-0.001969,0.00032932,0.00566799,-0.00154513,0.0314045,0.000637725,-4.67807e-06,-0.000431411,0.00512241,-1.95254e-05,0.000267368,-0.00174203,-0.00547199,0.00102414,-0.000471651,-0.000378978,0.000667789,-0.00670536,0.000979114,0.00782126,-0.00830107,-0.000722114,-0.001969,0.00032932,0.00566799,-0.00154513,0,0,0,0,0,0,0,0,0,-0.000430577,-3.0383e-05,-0.000279688,-0.000449609,-0.000278318,0.000268153,1.4701e-05,0.00012608,0.000350676,0.000432593,-7.31897e-05,5.10367e-06
1661,0.00051179,-0.0634279,0.0565529,0.00627565,0.0273061,0.0273061,0.0273061,0.0273061,0.0273061,0.0273061,0.0273061,0.0273061,0.0273061,-0.777306,0.825608,0.204793,1.15229,-0.0634279,0.0565529,0.00627565,0.0411364,-0.0444518,-0.0444525,-0.0304333,0.0595375,0.00621299,0.0273061,0.0594,-3.45704,-0.0345124,1.24575,-0.0189545,-0.0892869,3.53952,3.53942,-0.034152,0.118578,0.10127,0.0851533,-1.42088,0.134666,-3.63095,0.0411364,-0.0444518,-0.0444525,-0.0304333,0.0595375,0.00621299,0,0,0,0,0,0,0,0,0,-0.000107385,0.000298648,0.000241215,-0.00267374,-0.000530804,-0.00103086,-0.000526961,0.000800007,0.000330552,0.00133635,0.000808071,0.000500359
1662,0.00051179,0.0608995,-0.00155459,-0.0146238,0.0402714,0.0402714,0.0402714,0.0402714,0.0402714,0.0402714,0.0402714,0.0402714,0.0402714,-0.959729,-0.919033,0.200412,1.34382,0.0608995,-0.00155459,-0.0146238,-0.00427971,-0.00763555,0.00193088,-0.00731676,0.0320043,-0.0102906,0.0402714,0.102159,1.16113,0.0540282,0.0810006,0.401233,0.116636,-0.75038,-1.62326,0.00484155,0.0556953,-0.0168421,-0.108804,-0.135141,-0.0638547,0.873807,-0.00427971,-0.00763555,0.00193088,-0.00731676,0.0320043,-0.0102906,0,0,0,0,0,0,0,0,0,-0.000189222,0.000464869,-0.00109192,0.000305835,-0.000349158,0.00155585,-3.69059e-05,-0.000115695,0.00029093,0.000879836,0.000267317,-0.000395256
1663,0.00051179,-0.00115291,0.00463869,0.00390014,0.0949098,0.0949098,0.0949098,0.0949098,0.0949098,0.0949098,0.0949098,0.0949098,0.0949098,-0.90509,0.224875,0.549761,1.08259,-0.00115291,0.00463869,0.00390014,-0.00179889,0.00221159,0.000123225,0.00384761,-0.00408143,0.00646421,0.0949098,0.00404657,-0.0485618,-0.0010597,0.0144265,-0.00115955,-0.00503969,0.0496699,0.0508742,0.0051444,-0.0118721,7.73156e-05,-0.00492352,-0.00719312,0.00743062,-0.0486465,-0.00179889,0.00221159,0.000123225,0.00384761,-0.00408143,0.00646421,0,0,0,0,0,0,0,0,0,-0.000601187,-1.7763e-05,0.000139849,-0.000238861,-0.000334645,-0.00012833,1.59587e-05,-1.24041e-05,0.000302017,0.000189697,-2.76371e-05,4.04728e-05
1664,0.00051179,0.00079511,-0.00234952,0.000180374,0.0519421,0.0519421,0.0519421,0.0519421,0.0519421,0.0519421,0.0519421,0.0519421,0.0519421,-0.935664,-0.608801,0.948058,1.46455,0.00079511,-0.00234952,0.000180374,-0.00431237,0.00129719,-0.0044125,0.00615066,0.00211866,0.00438885,0.0519421,0.00112344,4.69372e-05,-0.000154428,-0.000803968,0.000123717,0.00049264,-0.000654243,-0.000965765,-0.000120686,0.000660337,-0.000151554,0.000797306,0.00249315,-0.00170948,-0.000323437,-0.00431237,0.00129719,-0.0044125,0.00615066,0.00211866,0.00438885,0,0,0,0,0,0,0,0,0,-0.000619248,-2.23143e-05,-0.000245456,-0.000363224,-0.000352407,0.000256884,2.37801e-05,-3.96336e-06,0.000313602,0.000324026,2.36344e-05,7.02715e-06
1665,0.00051179,-0.00293927,0.0203465,0.000139996,0.0510667,0.0510667,0.0510667,0.0510667,0.0510667,0.0510667,0.0510667,0.0510667,0.0510667,-0.801067,0.103725,0.371238,0.888979,-0.00293927,0.0203465,0.000139996,-0.00211974,0.0001639,0.00107521,0.00692349,-0.0064172,-0.00428195,0.0510667,0.00104578,-0.0350703,0.000300594,-0.0113738,0.00203227,-0.00652077,0.115613,0.0359773,-0.000616537,-0.0509289,-0.00326821,-0.0181764,0.0419561,0.0112074,-0.097577,-0.00211974,0.0001639,0.00107521,0.00692349,-0.0064172,-0.00428195,0,0,0,0,0,0,0,0,0,-0.000567265,-1.93988e-05,0.000103403,-0.0003423,-0.00034135,-9.87583e-05,1.75058e-05,-5.44096e-05,0.000323087,0.000287844,-4.24445e-05,2.05983e-05
1666,0.00051179,0.00264753,-0.00364438,0.00192686,0.123737,0.123737,0.123737,0.123737,0.123737,0.123737,0.123737,0.123737,0.123737,-0.873737,-0.831347,-0.751581,1.42107,0.00264753,-0.00364438,0.00192686,-0.0033267,0.00285434,0.00250635,-0.001211,0.0015526,0.000312243,0.123737,0.0012681,0.0015027,-0.000948511,0.00445581,-0.00148916,0.000902366,-0.0079358,-0.00266108,-0.0007775,0.00234061,-0.000486583,-0.00145972,-0.00315203,0.000580266,0.00746867,-0.0033267,0.00285434,0.00250635,-0.001211,0.0015526,0.000312243,0,0,0,0,0,0,0,0,0,-0.00053326,-6.65305e-06,0.000358739,-0.000491599,-0.000310564,-0.000339681,-6.30261e-06,-0.000124549,0.000311159,0.000525686,0.000135209,8.10246e-06
1667,0.00051179,-0.000849346,0.00250485,0.000144891,0.0133154,0.0133154,0.0133154,0.0133154,0.0133154,0.0133154,0.0133154,0.0133154,0.0133154,-0.986685,0.777343,0.93876,1.56815,-0.000849346,0.00250485,0.000144891,-0.0112133,-0.00349194,-0.001699,0.00260989,-0.00835332,0.00559483,0.0133154,0.00121982,0.00239967,1.58623e-05,-0.00256981,-0.000954405,0.000623304,-0.00279658,-0.00059592,0.000558494,-0.00358278,-0.000325033,-0.00152063,0.00364774,-0.00266526,0.00417232,-0.0112133,-0.00349194,-0.001699,0.00260989,-0.00835332,0.00559483,0,0,0,0,0,0,0,0,0,-0.000598572,-4.54726e-05,0.00022267,-0.000416448,-0.000302816,-0.000257431,2.03368e-05,8.27688e-06,0.000254706,0.000405692,-9.50604e-05,1.91427e-05
1668,0.00051179,-0.0562484,-0.00163013,0.0175065,0.0204596,0.0204596,0.0204596,0.0204596,0.0204596,0.0204596,0.0204596,0.0204596,0.0204596,-0.97954,-0.261794,0.122604,1.02131,-0.0562484,-0.00163013,0.0175065,-0.0063872,0.000842585,0.00964601,0.00188432,-0.0207162,0.0340028,0.0204596,0.208219,1.10057,-0.0250139,-0.485063,0.0230755,0.0209337,-0.083325,-1.06739,0.0908864,0.0128594,-0.0152537,-0.00704699,0.473834,-0.04715,0.0728656,-0.0063872,0.000842585,0.00964601,0.00188432,-0.0207162,0.0340028,0,0,0,0,0,0,0,0,0,-0.000519939,0.000684402,-9.10661e-05,0.000209681,-0.000399912,-0.000150647,0.000139098,-0.000135869,0.000367761,9.61155e-05,-0.000223829,-0.000390492
1669,0.00051179,-0.00111805,0.000371628,-0.00716168,0.113612,0.113612,0.113612,0.113612,0.113612,0.113612,0.113612,0.113612,0.113612,-0.863612,0.331352,-0.555076,1.07876,-0.00111805,0.000371628,-0.00716168,-0.00309265,-0.000143835,0.00230597,0.000898378,-0.00236216,-0.00172912,0.113612,-4.62383e-05,0.0276327,-0.00140022,0.0122104,0.00113622,-0.0039374,0.0493485,-0.0276508,0.0143977,0.00265826,-0.00318042,0.00910171,-0.0152403,-0.00363274,-0.0512885,-0.00309265,-0.000143835,0.00230597,0.000898378,-0.00236216,-0.00172912,0,0,0,0,0,0,0,0,0,-0.000451624,-2.35352e-05,-0.000215227,-0.000338345,-0.000290954,0.000199786,6.86396e-05,4.78109e-06,0.000334255,0.000322031,-6.02069e-05,-3.465e-05
1670,0.00051179,-0.00346325,0.000985971,-0.0228299,0.0232764,0.0232764,0.0232764,0.0232764,0.0232764,0.0232764,0.0232764,0.0232764,0.0232764,-0.976724,0.0370366,-0.730258,1.2201,-0.00346325,0.000985971,-0.0228299,-0.00117116,0.00225136,0.00465995,-0.00870434,-0.000707993,-0.000166131,0.0232764,-0.00281219,0.0328672,-0.00299626,0.0160621,-0.000143509,-0.00171021,0.0225566,-0.0292604,0.000561578,0.00189074,-0.00250994,0.00242559,-0.0189388,-0.00204093,-0.00215234,-0.00117116,0.00225136,0.00465995,-0.00870434,-0.000707993,-0.000166131,0,0,0,0,0,0,0,0,0,-0.000359528,-3.37847e-06,-2.88358e-05,-0.000315475,-0.000305558,2.13869e-05,-2.41755e-05,-6.5997e-06,0.000314102,0.000344972,-2.55796e-05,5.50295e-06
1671,0.00051179,0.000673946,0.00063622,0.00181747,0.080082,0.080082,0.080082,0.080082,0.080082,0.080082,0.080082,0.080082,0.080082,-0.919918,-0.650286,-0.615154,1.28356,0.000673946,0.00063622,0.00181747,-0.00313034,0.00150378,0.000335053,-0.00512393,0.00325534,0.00250324,0.080082,-0.000797316,0.0370758,-0.00213503,0.0119941,-0.00256019,-0.00261233,0.0203428,-0.0351895,0.00324924,0.00987481,-0.00267221,-0.00153726,-0.0225051,-0.00193048,-0.020623,-0.00313034,0.00150378,0.000335053,-0.00512393,0.00325534,0.00250324,0,0,0,0,0,0,0,0,0,-0.000525184,-1.36042e-05,0.000393104,-0.00040803,-0.000309492,-0.000399416,-3.33929e-06,-0.000104977,0.000313468,0.000385257,0.000110808,8.89794e-06
1672,0.00051179,0.00703306,-0.00329968,0.019588,0.0434811,0.0434811,0.0434811,0.0434811,0.0434811,0.0434811,0.0434811,0.0434811,0.0434811,-0.916819,-0.956519,0.398777,1.38366,0.00703306,-0.00329968,0.019588,-0.00406637,-0.00494099,-0.0277521,-0.00494619,0.00514805,0.0125827,0.0434811,-0.0101034,0.112178,0.00537647,-0.0348848,0.102264,0.022056,0.0340491,-0.221475,0.00119258,-0.0118028,-0.00441678,-0.134858,0.0499873,-0.00912017,0.0812209,-0.00406637,-0.00494099,-0.0277521,-0.00494619,0.00514805,0.0125827,0,0,0,0,0,0,0,0,0,-0.000225551,-5.41632e-05,-0.000770477,-0.000627169,-0.000340397,0.000774831,-2.0824e-06,-0.000152114,0.000289075,0.000570208,0.000159427,3.39981e-05
1673,0.00051179,-0.0207,-0.00419668,0.0184469,0.108095,0.108095,0.108095,0.108095,0.108095,0.108095,0.108095,0.108095,0.108095,-0.891905,0.640892,-0.0216702,1.0985,-0.0207,-0.00419668,0.0184469,0.0119643,-0.0134469,-0.00308123,-0.00414411,0.00325852,-0.00612871,0.108095,-0.215096,-2.05201,0.00442178,-0.0365432,0.182487,0.398687,2.99055,1.89022,-0.00788827,0.0931405,-0.0227518,-0.509739,-0.0524007,0.0555919,-2.49925,0.0119643,-0.0134469,-0.00308123,-0.00414411,0.00325852,-0.00612871,0,0,0,0,0,0,0,0,0,-0.000667103,-0.000824466,-6.19187e-05,0.00363194,-0.000291998,-2.83323e-05,0.000131032,-0.000191827,0.000475653,0.000324127,-3.10536e-06,0.00043851
1674,0.00051179,-0.00693888,0.00466618,0.00425935,0.12152,0.12152,0.12152,0.12152,0.12152,0.12152,0.12152,0.12152,0.12152,-0.87848,-0.488001,0.490392,1.11819,-0.00693888,0.00466618,0.00425935,-0.004348,0.00188817,-6.89011e-05,-0.00607456,0.001235,0.00638572,0.12152,0.0044324,-0.0740725,-0.000171058,0.00566552,-0.00711851,-0.008251,0.0878537,0.0881299,0.00111477,0.0199973,0.000878855,0.0135281,-0.030329,0.0110932,-0.105641,-0.004348,0.00188817,-6.89011e-05,-0.00607456,0.001235,0.00638572,0,0,0,0,0,0,0,0,0,-0.000519104,-1.41206e-05,-0.00035577,-0.000279194,-0.000340605,0.000372941,-3.93415e-05,3.04214e-05,0.000321321,0.000195995,-9.28288e-06,7.28522e-05
1675,0.00051179,0.00614613,-0.011621,0.00867474,0.0753643,0.0753643,0.0753643,0.0753643,0.0753643,0.0753643,0.0753643,0.0753643,0.0753643,-0.825364,-0.0784132,-0.238941,0.862825,0.00614613,-0.011621,0.00867474,-0.0128546,0.00674878,0.000884682,0.0117571,0.0110773,0.00704243,0.0753643,-0.0346384,0.673823,0.00271351,-0.0274071,-0.0477101,-0.04851,0.287026,-0.632259,-0.0643903,-0.0251588,-0.00174672,-0.101948,0.0641869,-0.0532619,-0.193753,-0.0128546,0.00674878,0.000884682,0.0117571,0.0110773,0.00704243,0,0,0,0,0,0,0,0,0,-0.000566863,-6.86045e-05,0.000134306,-0.000778604,-0.000318462,-3.96835e-05,-9.43055e-05,7.42983e-05,0.000348136,0.000302351,1.90076e-05,-6.22371e-05
1676,0.00051179,0.00554902,0.00114258,-0.0110546,0.104957,0.104957,0.104957,0.104957,0.104957,0.104957,0.104957,0.104957,0.104957,-0.854957,0.0464499,-0.445925,0.965379,0.00554902,0.00114258,-0.0110546,-0.00164915,-4.37475e-05,-0.00285259,-0.00873127,-0.00311582,0.000542758,0.104957,-0.00267248,0.0654092,-0.00024312,-0.000268221,0.000507804,-0.00726178,0.113889,-0.071466,0.0173395,0.0130085,-0.00623915,-0.000564992,-0.0138829,-0.0097594,-0.10227,-0.00164915,-4.37475e-05,-0.00285259,-0.00873127,-0.00311582,0.000542758,0,0,0,0,0,0,0,0,0,-0.000456385,-1.59197e-05,-3.50856e-05,-0.000407308,-0.000313336,3.2217e-05,4.87298e-05,-6.30101e-05,0.000346795,0.000306164,-3.05396e-05,-4.03947e-05
1677,0.00051179,0.001057,-0.00696224,0.00399664,0.0720484,0.0720484,0.0720484,0.0720484,0.0720484,0.0720484,0.0720484,0.0720484,0.0720484,-0.927952,0.802922,-0.773212,1.45039,0.001057,-0.00696224,0.00399664,-0.00125435,-0.00232904,0.00229331,-0.0020189,-0.0088161,-5.91863e-05,0.0720484,0.000869587,0.00178657,-0.0011706,0.00645736,0.00179755,0.00118944,-0.0096173,-0.00464111,-0.0008543,-0.00113826,0.000304146,0.00164118,0.00164313,-0.000740264,0.00397947,-0.00125435,-0.00232904,0.00229331,-0.0020189,-0.0088161,-5.91863e-05,0,0,0,0,0,0,0,0,0,-0.000505187,2.75783e-06,-0.000348112,-0.000520055,-0.000313962,0.000313115,-9.68439e-06,8.58614e-05,0.000261799,0.000554882,-0.000170981,6.84382e-07
1678,0.00051179,0.00585498,0.00313842,0.00303935,0.0268914,0.0268914,0.0268914,0.0268914,0.0268914,0.0268914,0.0268914,0.0268914,0.0268914,-0.776891,-0.688381,-0.401097,1.11279,0.00585498,0.00313842,0.00303935,-0.0274006,0.00810592,0.00286048,0.0241231,-0.0227588,0.00954371,0.0268914,0.000149384,0.0262258,-0.00112426,0.0147356,0.00467235,-0.00113241,0.0787926,-0.0367531,0.012347,0.0504204,-0.0111683,0.00939541,-0.0682944,-0.00624511,-0.0912274,-0.0274006,0.00810592,0.00286048,0.0241231,-0.0227588,0.00954371,0,0,0,0,0,0,0,0,0,-0.000650041,-0.000150699,0.000511878,-0.000607314,-0.000417614,-0.000442061,0.000167907,-0.000303673,0.000373535,0.000624595,-3.55981e-05,2.04978e-06
1679,0.00051179,-0.0133358,0.00183017,-0.00713202,0.00619449,0.00619449,0.00619449,0.00619449,0.00619449,0.00619449,0.00619449,0.00619449,0.00619449,-0.993806,-0.2436,0.384149,1.09296,-0.0133358,0.00183017,-0.00713202,0.00647478,0.00186641,-0.00473307,-0.00179009,-0.00499744,-0.00173558,0.00619449,0.0327099,-0.128155,-0.00174909,0.0260951,0.0201107,-0.0258288,-0.0567726,0.12138,0.0442351,0.0574551,0.0120235,-0.0426004,-0.0853804,0.0129635,0.106505,0.00647478,0.00186641,-0.00473307,-0.00179009,-0.00499744,-0.00173558,0,0,0,0,0,0,0,0,0,-0.000557989,8.87798e-05,-0.000135076,-0.000239789,-0.000373984,0.000136249,0.000105082,0.000133159,0.000305869,-6.583e-05,-6.28981e-05,-5.10037e-05
1680,0.00051179,-0.00170552,-0.00197162,0.00838291,0.0849806,0.0849806,0.0849806,0.0849806,0.0849806,0.0849806,0.0849806,0.0849806,0.0849806,-0.834981,-0.795391,-0.55914,1.28159,-0.00170552,-0.00197162,0.00838291,-0.00409008,0.00253617,0.00347047,-0.000683851,-0.00913543,0.00198476,0.0849806,0.00165756,0.0122556,-0.00115144,0.00304355,-0.0021758,-0.000299763,0.0189358,-0.00837426,0.00557299,0.0231824,-0.0029874,-0.00769746,-0.0242543,0.000877339,-0.0196212,-0.00409008,0.00253617,0.00347047,-0.000683851,-0.00913543,0.00198476,0,0,0,0,0,0,0,0,0,-0.000615098,-1.82996e-05,0.000473577,-0.000514986,-0.000356996,-0.00045973,1.83087e-05,-0.000215188,0.000338726,0.000546693,9.396e-05,8.17353e-06
1681,0.00051179,0.0129001,0.0028375,-0.00820545,0.0044045,0.0044045,0.0044045,0.0044045,0.0044045,0.0044045,0.0044045,0.0044045,0.0044045,-0.754404,0.84472,-0.82474,1.40103,0.0129001,0.0028375,-0.00820545,-0.00859581,0.00325763,-7.55787e-05,-0.00136738,0.00742528,0.00228685,0.0044045,0.000884607,-0.0127107,-0.000320069,0.00769359,-0.000531806,0.000275761,0.000363296,0.000342418,0.001855,-0.00565865,-5.58887e-06,0.00372746,-0.00487244,0.0018516,0.00411469,-0.00859581,0.00325763,-7.55787e-05,-0.00136738,0.00742528,0.00228685,0,0,0,0,0,0,0,0,0,-0.000493534,-3.49962e-05,-0.000306518,-0.000539165,-0.000266397,0.000335894,5.99784e-06,0.000151946,0.000349894,0.000541167,-7.77492e-05,2.4252e-05
1682,0.00051179,-0.00587808,-0.0138614,0.0361565,0.00440062,0.00440062,0.00440062,0.00440062,0.00440062,0.00440062,0.00440062,0.00440062,0.00440062,-0.995599,0.211076,0.492143,1.13048,-0.00587808,-0.0138614,0.0361565,0.00132726,-0.000467668,-0.00423614,0.0108555,-0.00288824,0.000879208,0.00440062,0.0148712,-0.0941557,0.000632472,-0.022301,0.0045673,-0.0151549,0.0477286,0.0954665,0.0212229,-0.0396051,-0.0026785,-0.0244751,0.0757675,0.0143576,-0.05941,0.00132726,-0.000467668,-0.00423614,0.0108555,-0.00288824,0.000879208,0,0,0,0,0,0,0,0,0,-0.00058838,7.70731e-06,0.000130003,-0.000249366,-0.000321979,-0.000128355,8.71071e-05,-3.9434e-05,0.000289112,5.54558e-05,-1.62335e-05,2.89888e-06
1683,0.00051179,0.00526333,-0.020855,-0.015707,0.0753865,0.0753865,0.0753865,0.0753865,0.0753865,0.0753865,0.0753865,0.0753865,0.0753865,-0.924614,0.601308,-0.372705,1.16421,0.00526333,-0.020855,-0.015707,-0.00630265,-0.00359823,0.00620934,-0.00265763,-0.00107081,-0.000703197,0.0753865,-0.0572913,0.634669,0.00590397,-0.00856538,0.0354346,-0.0534465,0.295729,-0.675367,0.00634239,0.0716651,-0.000200166,0.0829284,-0.0422447,-0.0389735,-0.36295,-0.00630265,-0.00359823,0.00620934,-0.00265763,-0.00107081,-0.000703197,0,0,0,0,0,0,0,0,0,-0.000616752,-0.000203063,-0.000487777,-0.000569309,-0.000280077,0.000510835,0.000133331,9.47781e-05,0.000285603,9.69374e-05,-0.000107488,-8.34768e-05
1684,0.00051179,-0.0212212,-0.00505912,-0.04204,0.057041,0.057041,0.057041,0.057041,0.057041,0.057041,0.057041,0.057041,0.057041,-0.942959,0.870133,-0.109237,1.28772,-0.0212212,-0.00505912,-0.04204,0.018807,-0.0139595,0.0200662,-0.0171047,-0.0138798,-0.0169695,0.057041,-0.344131,-2.98199,0.0903155,0.556089,-0.117628,0.247649,-0.223287,3.12083,0.00227754,0.0486353,-0.0284208,0.102088,-0.599665,0.147612,0.163239,0.018807,-0.0139595,0.0200662,-0.0171047,-0.0138798,-0.0169695,0,0,0,0,0,0,0,0,0,-0.000816643,-0.00138488,-0.000453708,0.00147243,-0.00023287,0.00121727,0.000167606,-0.000227498,0.000331223,0.00120472,-0.000195508,0.000894952
1685,0.00051179,0.00560613,0.000228407,-0.00611733,0.0285821,0.0285821,0.0285821,0.0285821,0.0285821,0.0285821,0.0285821,0.0285821,0.0285821,-0.778582,0.0734344,0.61601,0.995515,0.00560613,0.000228407,-0.00611733,0.0015384,-0.00048285,0.00399726,-0.00623511,0.00154922,0.00256914,0.0285821,0.000278905,-0.00931032,0.000518806,0.00129302,0.000173031,0.000121828,0.0124176,0.00353116,-0.00744938,0.00112684,-0.000838563,-0.0008424,-0.00264826,0.00116028,-0.00545787,0.0015384,-0.00048285,0.00399726,-0.00623511,0.00154922,0.00256914,0,0,0,0,0,0,0,0,0,-0.000630893,1.84762e-05,4.5663e-05,-0.00020804,-0.000343794,-4.53034e-05,-5.90327e-05,1.73729e-05,0.000333816,0.000249231,-1.02663e-05,2.80368e-05
1686,0.00051179,0.0668468,-0.0433482,0.130751,0.0091986,0.0091986,0.0091986,0.0091986,0.0091986,0.0091986,0.0091986,0.0091986,0.0091986,-0.759199,-0.376563,0.172663,0.864867,0.0668468,-0.0433482,0.130751,0.0229867,-0.120858,-0.245328,0.0456575,0.128035,0.17484,0.0091986,0.109068,-8.13174,-0.0269239,1.17994,-0.0687121,-0.162063,7.55796,8.13361,0.0694024,0.409062,0.0608377,0.155788,-1.54565,0.310635,-7.8445,0.0229867,-0.120858,-0.245328,0.0456575,0.128035,0.17484,0,0,0,0,0,0,0,0,0,-0.000235476,-0.00018502,-0.00110557,-0.00431741,-0.000424797,-0.000372244,-0.000269996,0.00159872,0.000272609,0.000243494,0.00029001,0.00158208
1687,0.00051179,-0.00493096,0.00243864,-0.00868991,0.0411659,0.0411659,0.0411659,0.0411659,0.0411659,0.0411659,0.0411659,0.0411659,0.0411659,-0.958834,-0.1875,-0.796043,1.26024,-0.00493096,0.00243864,-0.00868991,-0.00333449,0.00299999,0.00212529,-0.00913029,-0.00192112,0.000696077,0.0411659,-0.00172208,0.0247795,-0.0019372,0.0112811,-0.000534141,2.94745e-05,0.00845322,-0.0193144,-0.00119993,0.00100864,-0.00138178,-0.000742613,-0.0147284,-0.00181457,0.000979309,-0.00333449,0.00299999,0.00212529,-0.00913029,-0.00192112,0.000696077,0,0,0,0,0,0,0,0,0,-0.000347562,-6.23829e-06,0.000106216,-0.000312202,-0.000298435,-9.55877e-05,-3.26066e-05,-3.59958e-05,0.000322513,0.00033375,2.96676e-06,1.34521e-05
1688,0.00051179,-0.00161849,0.000682659,-0.00434804,0.0543353,0.0543353,0.0543353,0.0543353,0.0543353,0.0543353,0.0543353,0.0543353,0.0543353,-0.804335,0.17091,0.00334061,0.8223,-0.00161849,0.000682659,-0.00434804,0.0085698,-0.0103554,-0.0121553,0.00173107,0.00350938,0.000130616,0.0543353,0.008595,0.13015,0.013028,0.109168,0.0224666,0.213169,0.80593,-0.150998,0.0261309,-0.0415145,0.101395,0.583653,-0.0683361,-0.0172467,-1.38524,0.0085698,-0.0103554,-0.0121553,0.00173107,0.00350938,0.000130616,0,0,0,0,0,0,0,0,0,-0.000544846,5.36194e-05,-1.92021e-05,0.00228913,-0.000320697,4.59286e-05,0.000107105,0.00101079,0.000409164,-0.000278997,3.82607e-05,-0.000117785
1689,0.00051179,0.0774488,0.00626135,0.0226389,0.0721082,0.0721082,0.0721082,0.0721082,0.0721082,0.0721082,0.0721082,0.0721082,0.0721082,-0.822108,0.830213,0.0777124,1.17096,0.0774488,0.00626135,0.0226389,-0.01232,0.00261846,0.0211724,0.0171489,-0.00791349,0.0194286,0.0721082,1.0627,11.5616,-0.169217,-1.58989,-0.464232,0.410139,0.477242,-11.1748,0.0351613,-0.465162,-0.0436813,0.181823,2.04879,-0.347274,-0.681704,-0.01232,0.00261846,0.0211724,0.0171489,-0.00791349,0.0194286,0,0,0,0,0,0,0,0,0,-8.28132e-05,0.00435786,-0.000240992,0.00412138,-0.000457788,-0.00142499,-0.000632502,-0.00146955,0.000471652,0.000191735,0.000953607,-0.00253328
1690,0.00051179,-0.0673814,0.0425239,0.0070067,0.0695232,0.0695232,0.0695232,0.0695232,0.0695232,0.0695232,0.0695232,0.0695232,0.0695232,-0.819523,-0.460896,0.185706,0.9584,-0.0673814,0.0425239,0.0070067,0.00168858,-0.0196167,0.00360452,0.0188553,0.0108553,-0.0175371,0.0695232,0.401445,-2.98501,-0.0414712,0.318861,-0.207595,-0.311867,-0.832204,3.25999,0.068911,0.200019,0.0674301,0.195843,-0.561404,0.210507,0.629354,0.00168858,-0.0196167,0.00360452,0.0188553,0.0108553,-0.0175371,0,0,0,0,0,0,0,0,0,-0.000239313,0.00122659,-0.000797919,-0.00266471,-0.00038662,0.000187039,-0.000350249,0.000603423,0.000263132,-0.000417905,0.000179432,0.000175768
1691,0.00051179,0.0395934,0.00127713,0.00868273,0.119771,0.119771,0.119771,0.119771,0.119771,0.119771,0.119771,0.119771,0.119771,-0.869771,-0.203319,0.179918,0.911159,0.0395934,0.00127713,0.00868273,0.00802705,-0.00541586,-0.000875294,0.00159284,0.00105831,0.00242156,0.119771,0.180832,0.198246,-0.0429484,-0.0743059,0.223935,-0.0732444,-0.878059,-0.461775,0.101412,0.0268093,0.0297043,-0.19116,0.0462194,-0.0138596,1.06054,0.00802705,-0.00541586,-0.000875294,0.00159284,0.00105831,0.00242156,0,0,0,0,0,0,0,0,0,-0.000453107,0.000620727,-0.000388828,-0.000569807,-0.000402773,-9.48139e-05,0.000191455,0.000255743,0.00032188,-0.00017139,5.18832e-05,-0.000380758
1692,0.00051179,0.0046422,-0.0098337,0.000586113,0.0688782,0.0688782,0.0688782,0.0688782,0.0688782,0.0688782,0.0688782,0.0688782,0.0688782,-0.818878,-0.646917,-0.580785,1.19431,0.0046422,-0.0098337,0.000586113,-0.00289218,0.00106534,0.00301233,0.00276763,-0.0102508,-0.00108636,0.0688782,0.00123997,-0.000163132,-0.00109451,0.00683279,0.000500583,-0.00074425,0.0268039,-0.00497965,0.00879712,0.0274783,-0.00319333,-0.000697263,-0.0244774,-0.000811409,-0.0266927,-0.00289218,0.00106534,0.00301233,0.00276763,-0.0102508,-0.00108636,0,0,0,0,0,0,0,0,0,-0.000539385,-1.75089e-05,0.00040707,-0.000414763,-0.00035491,-0.000407361,4.8576e-05,-0.000174032,0.000355601,0.000437443,3.95903e-05,-1.87367e-05
1693,0.00051179,0.017674,0.00816965,-0.0176767,0.0690956,0.0690956,0.0690956,0.0690956,0.0690956,0.0690956,0.0690956,0.0690956,0.0690956,-0.930904,0.897103,0.072601,1.29485,0.017674,0.00816965,-0.0176767,-0.00987893,0.0017323,0.0101584,0.000966057,-0.0258974,-0.00128415,0.0690956,0.286554,2.84863,-0.0693139,-0.444494,0.294664,0.417337,0.861195,-3.16097,0.00479691,-0.121844,-0.0356717,0.244374,0.558168,-0.142571,-1.08789,-0.00987893,0.0017323,0.0101584,0.000966057,-0.0258974,-0.00128415,0,0,0,0,0,0,0,0,0,-0.000364967,0.00122347,0.000374203,0.00247864,-0.000343883,-0.00105002,-0.000131088,-0.000659462,0.000385471,0.00179631,4.37713e-05,-0.000879177
1694,0.00051179,0.0429628,0.0274773,-0.0621428,0.0320745,0.0320745,0.0320745,0.0320745,0.0320745,0.0320745,0.0320745,0.0320745,0.0320745,-0.782074,0.241073,-0.0219956,0.818682,0.0429628,0.0274773,-0.0621428,-0.00951163,-0.00603279,-0.00210255,0.00272305,0.00639017,-0.00581675,0.0320745,-0.187451,-1.31564,-0.0906979,-1.01518,-0.245363,0.287153,0.596812,1.51804,-0.0674532,-0.179786,0.15604,0.50484,1.16749,0.0103486,-1.03951,-0.00951163,-0.00603279,-0.00210255,0.00272305,0.00639017,-0.00581675,0,0,0,0,0,0,0,0,0,-0.000643723,-0.00068809,-0.000513704,0.00379916,-0.000355626,-0.000453603,-2.69261e-05,0.00167897,0.000394419,-0.000948652,-5.46649e-05,0.000319384
1695,0.00051179,0.00892971,0.00991845,0.00406737,0.0239553,0.0239553,0.0239553,0.0239553,0.0239553,0.0239553,0.0239553,0.0239553,0.0239553,-0.976045,0.321487,0.620605,1.20049,0.00892971,0.00991845,0.00406737,0.00219407,0.000319293,-0.00311053,0.00745032,-0.00513403,0.00148672,0.0239553,0.00452085,-0.0482644,-0.00139933,0.0128004,-0.000948331,-0.005135,0.0375668,0.040283,0.0114368,-0.0135405,4.15975e-05,-0.00507005,-0.00917835,0.00708425,-0.0365641,0.00219407,0.000319293,-0.00311053,0.00745032,-0.00513403,0.00148672,0,0,0,0,0,0,0,0,0,-0.000601627,-5.85579e-06,0.000178154,-0.00023782,-0.000321085,-0.000188954,5.50051e-05,-1.28521e-05,0.000288494,0.000155365,-3.80722e-05,3.42452e-06
1696,0.00051179,0.00649607,0.0137509,0.0178803,0.117754,0.117754,0.117754,0.117754,0.117754,0.117754,0.117754,0.117754,0.117754,-0.882246,-0.754375,0.270712,1.19194,0.00649607,0.0137509,0.0178803,-9.86634e-05,0.00426742,0.00296204,-0.00385703,-0.00778651,0.00724616,0.117754,0.1137,-0.947475,0.0266762,-0.102285,-0.0846412,-0.0816635,-0.137689,1.02562,-0.0189411,-0.0182151,-0.0274087,0.169683,0.106749,0.0466738,-0.0498744,-9.86634e-05,0.00426742,0.00296204,-0.00385703,-0.00778651,0.00724616,0,0,0,0,0,0,0,0,0,-0.000285104,0.000401018,-0.000546621,-0.00086699,-0.000295633,0.000856058,-0.000280979,-0.000218845,0.000300325,7.99753e-05,-0.000133107,0.000102612
1697,0.00051179,0.0207138,0.148334,0.467001,0.00309551,0.00309551,0.00309551,0.00309551,0.00309551,0.00309551,0.00309551,0.00309551,0.00309551,-0.745961,-0.229337,-0.162316,0.79712,0.0207138,0.148334,0.467001,-0.00488359,0.126614,-0.223436,0.00891158,0.154616,-0.19572,0.00309551,-0.053785,7.21897,0.023393,-1.43698,-0.0510551,-0.0951956,7.83784,-7.18863,-0.17842,-0.419156,0.0402944,-0.119816,1.7078,-0.199956,-8.18502,-0.00488359,0.126614,-0.223436,0.00891158,0.154616,-0.19572,0,0,0,0,0,0,0,0,0,-0.000749327,0.000426487,0.001005,-0.00315232,-0.000268007,0.000495069,-0.000127713,0.00152742,0.000331327,-3.39876e-05,0.000421683,-0.00125855
1698,0.00051179,0.00752783,0.031333,0.00688136,0.0984094,0.0984094,0.0984094,0.0984094,0.0984094,0.0984094,0.0984094,0.0984094,0.0984094,-0.901591,0.457494,0.0429331,1.01193,0.00752783,0.031333,0.00688136,0.00915471,-0.00328487,-0.0037206,0.00778282,0.00611682,0.000714421,0.0984094,0.332693,2.33748,0.0296642,0.536057,-0.182921,0.243416,1.72776,-2.16209,0.0641811,-0.0113466,0.0420109,-0.245707,-0.556044,-0.079648,-1.48893,0.00915471,-0.00328487,-0.0037206,0.00778282,0.00611682,0.000714421,0,0,0,0,0,0,0,0,0,-0.000467829,0.00132284,0.000165854,0.00235431,-0.000285173,9.7939e-05,-2.6578e-05,0.000332991,0.000444062,4.2644e-05,0.000148287,-0.000781066
1699,0.00051179,-0.00166055,0.0017265,0.00606896,0.0168044,0.0168044,0.0168044,0.0168044,0.0168044,0.0168044,0.0168044,0.0168044,0.0168044,-0.893611,-0.983196,0.799921,1.55083,-0.00166055,0.0017265,0.00606896,0.000119233,-0.00217858,-0.0102015,0.00104015,-0.00166948,0.00715494,0.0168044,0.00107618,-0.00146744,-5.16698e-05,-0.00292078,0.000695326,-0.000285406,0.00147027,0.00243266,-2.44845e-05,0.00201052,0.000206906,-0.00868665,-0.000816228,-0.00106083,0.00114741,0.000119233,-0.00217858,-0.0102015,0.00104015,-0.00166948,0.00715494,0,0,0,0,0,0,0,0,0,-0.000439487,-3.60586e-06,-0.000364912,-0.00051485,-0.000343198,0.00034261,-4.50456e-06,3.76613e-06,0.000317812,0.000409981,-1.83919e-05,2.08876e-05
1700,0.00051179,0.00330341,0.0188844,-0.0015997,0.0115095,0.0115095,0.0115095,0.0115095,0.0115095,0.0115095,0.0115095,0.0115095,0.0115095,-0.988491,0.919772,0.66365,1.5045,0.00330341,0.0188844,-0.0015997,-0.00113016,-0.00433851,0.00521551,-0.000203973,-0.0125908,0.0124383,0.0115095,0.00220169,-0.016026,0.000148781,0.000369076,0.00551985,-0.00180673,0.0112074,0.00720273,0.000196619,-0.0110801,-0.00092017,0.00387851,-0.00817333,0.00100022,-0.0134862,-0.00113016,-0.00433851,0.00521551,-0.000203973,-0.0125908,0.0124383,0,0,0,0,0,0,0,0,0,-0.000428692,-1.13762e-05,0.000401159,-0.000521451,-0.000299389,-0.000443056,-1.67706e-05,-1.72787e-05,0.000231341,0.000555539,-0.000117831,5.04586e-05
1701,0.00051179,-0.00875327,0.00463522,-0.0148775,0.0364134,0.0364134,0.0364134,0.0364134,0.0364134,0.0364134,0.0364134,0.0364134,0.0364134,-0.963587,-0.688807,0.327217,1.22883,-0.00875327,0.00463522,-0.0148775,0.00273946,0.00367209,0.00115382,0.00718299,0.020406,-0.0127635,0.0364134,0.0895626,-0.379539,0.0179567,-0.0792622,-0.0883824,-0.0532881,-0.037847,0.476675,0.00687869,0.0724943,-0.0073239,0.106605,0.00213268,0.0242027,-0.0538801,0.00273946,0.00367209,0.00115382,0.00718299,0.020406,-0.0127635,0,0,0,0,0,0,0,0,0,-0.000384003,0.000325584,-0.00057469,-0.000330408,-0.000379676,0.000790978,-6.56181e-05,2.42206e-05,0.000306256,-0.000190935,0.0001066,-7.87304e-05
1702,0.00051179,0.00209802,-0.00173543,-7.20834e-05,0.0811677,0.0811677,0.0811677,0.0811677,0.0811677,0.0811677,0.0811677,0.0811677,0.0811677,-0.831168,-0.827627,-0.799426,1.41947,0.00209802,-0.00173543,-7.20834e-05,-0.00200355,0.00202585,0.0023762,-0.000718949,-0.00128946,0.0018923,0.0811677,0.00110604,0.000384461,-0.000746958,0.00329164,-0.000375122,0.000644136,-0.00829407,-0.00210736,-0.000545995,0.00234777,-0.000425369,-0.00121912,-0.00390398,0.000970401,0.00958528,-0.00200355,0.00202585,0.0023762,-0.000718949,-0.00128946,0.0018923,0,0,0,0,0,0,0,0,0,-0.000508852,-5.29555e-06,0.000332996,-0.00048552,-0.000318253,-0.000320207,-7.13269e-06,-0.000136305,0.000333324,0.000515724,0.000119156,1.35055e-05
1703,0.00051179,-0.000627982,-0.000916283,-0.00843725,0.03905,0.03905,0.03905,0.03905,0.03905,0.03905,0.03905,0.03905,0.03905,-0.837324,0.723085,-0.96095,1.4654,-0.000627982,-0.000916283,-0.00843725,-0.00167076,0.000305293,-0.00104256,-0.00187264,0.000392159,0.00200398,0.03905,0.00129093,-0.00643161,-0.000359856,0.00338567,-0.000404106,0.000606328,-0.00149514,0.00746369,-0.000259446,0.00124434,0.000168012,-4.36586e-05,-0.00371372,-0.000898849,0.00997604,-0.00167076,0.000305293,-0.00104256,-0.00187264,0.000392159,0.00200398,0,0,0,0,0,0,0,0,0,-0.000389926,-2.75927e-07,-0.000246241,-0.000491694,-0.000307197,0.000245696,-9.03723e-06,0.000113286,0.00031855,0.000487332,-0.000107685,7.14888e-06
1704,0.00051179,0.00599349,0.00577939,0.0127861,0.0789382,0.0789382,0.0789382,0.0789382,0.0789382,0.0789382,0.0789382,0.0789382,0.0789382,-0.828938,0.592535,-0.30077,1.0624,0.00599349,0.00577939,0.0127861,-0.0150951,-0.00345059,-0.0155074,-0.0037936,-0.0112163,-0.0159676,0.0789382,-0.0340311,1.14919,0.00478769,-0.0343227,0.0334407,-0.0617019,1.09873,-1.18862,0.0491399,0.0283051,0.0078432,0.144567,0.00023823,-0.088691,-1.25608,-0.0150951,-0.00345059,-0.0155074,-0.0037936,-0.0112163,-0.0159676,0,0,0,0,0,0,0,0,0,-0.000692166,-0.00012051,-0.000493696,-0.0013127,-0.000229413,0.000507067,0.000351853,-8.04321e-06,0.000296637,0.000540605,-2.56879e-05,-0.000398171
1705,0.00051179,0.026057,0.00902309,0.0295735,0.0235945,0.0235945,0.0235945,0.0235945,0.0235945,0.0235945,0.0235945,0.0235945,0.0235945,-0.976406,0.384427,0.201655,1.06856,0.026057,0.00902309,0.0295735,0.0120952,-0.0107113,0.0111431,0.0218266,0.0188541,0.00648442,0.0235945,0.247017,0.789072,0.0324769,0.194749,-0.146397,-0.0652954,-0.606328,-0.668732,0.0743275,-0.116127,-0.0224401,0.000316412,-0.0876459,-0.026756,0.576438,0.0120952,-0.0107113,0.0111431,0.0218266,0.0188541,0.00648442,0,0,0,0,0,0,0,0,0,-0.000480853,0.000909029,0.000243798,-9.70977e-05,-0.00028106,-2.61427e-05,9.4238e-05,-9.2019e-05,0.000328146,-0.000444425,5.61592e-05,-0.00048789
1706,0.00051179,-0.00243454,0.00942591,0.000112206,0.062252,0.062252,0.062252,0.062252,0.062252,0.062252,0.062252,0.062252,0.062252,-0.812252,0.00376864,0.385998,0.899312,-0.00243454,0.00942591,0.000112206,-0.00239961,0.00104418,0.000801761,0.00400922,0.000352154,-0.00599499,0.062252,0.0010788,-0.03926,1.67638e-06,-0.00384862,0.00281934,-0.00666694,0.0898171,0.0388752,0.00302736,-0.0157351,-0.000879776,-0.0156195,0.0101578,0.00932631,-0.0743098,-0.00239961,0.00104418,0.000801761,0.00400922,0.000352154,-0.00599499,0,0,0,0,0,0,0,0,0,-0.000577845,-1.7043e-05,1.43499e-05,-0.000318069,-0.000343258,-3.89131e-06,2.4744e-05,2.6499e-05,0.000323825,0.000259417,-3.17752e-05,6.21766e-06
1707,0.00051179,-0.0304909,0.0930405,0.0449526,0.0182222,0.0182222,0.0182222,0.0182222,0.0182222,0.0182222,0.0182222,0.0182222,0.0182222,-0.731778,0.313187,0.073516,0.799368,-0.0304909,0.0930405,0.0449526,-0.0994348,-0.095136,0.0595728,-0.0810375,-0.0155997,0.0319692,0.0182222,1.38756,13.3318,0.549484,7.01908,0.808061,0.0158338,-3.55539,-14.1094,0.595926,0.8761,0.0737502,0.085439,-7.98822,0.200529,3.42499,-0.0994348,-0.095136,0.0595728,-0.0810375,-0.0155997,0.0319692,0,0,0,0,0,0,0,0,0,-3.83705e-05,0.00409197,0.0022891,0.00452365,-0.000126297,0.00225438,0.000225769,0.00140986,0.000208862,-0.00376958,-0.000828352,-0.00118618
1708,0.00051179,-0.00179731,0.0144192,0.00985283,0.0579755,0.0579755,0.0579755,0.0579755,0.0579755,0.0579755,0.0579755,0.0579755,0.0579755,-0.807975,0.712069,0.457665,1.17018,-0.00179731,0.0144192,0.00985283,0.00309801,-0.00159781,0.00442394,-0.00581571,0.0139767,0.00686352,0.0579755,0.00126834,-0.0311446,-0.00200104,0.0311702,-0.00476892,-0.00345843,0.0745402,0.0377109,-0.0144374,0.0222323,0.00456263,0.0147652,-0.0678217,0.00786991,-0.0991582,0.00309801,-0.00159781,0.00442394,-0.00581571,0.0139767,0.00686352,0,0,0,0,0,0,0,0,0,-0.000419334,2.31625e-05,0.000483819,-0.000464303,-0.000391478,-0.000519807,-9.99347e-05,0.000129901,0.000318542,0.000473958,5.54928e-05,7.49979e-05
1709,0.00051179,0.010252,-0.0158652,-0.0144007,0.118844,0.118844,0.118844,0.118844,0.118844,0.118844,0.118844,0.118844,0.118844,-0.881155,-0.160117,-0.222127,0.92272,0.010252,-0.0158652,-0.0144007,-0.0115252,0.0101262,-0.00446203,0.00345281,0.00564604,-0.00221011,0.118844,-0.101954,0.397234,0.0198557,-0.120035,-0.157468,-0.0654309,-0.317206,-0.250018,-0.0648958,0.0260496,0.0111199,-0.138389,0.109851,-0.0152967,0.469996,-0.0115252,0.0101262,-0.00446203,0.00345281,0.00564604,-0.00221011,0,0,0,0,0,0,0,0,0,-0.000585623,-0.000345364,0.000263929,-0.000724675,-0.000307882,3.58904e-05,-8.51809e-05,0.000122695,0.000336878,2.57461e-05,4.49643e-05,0.0001345
1710,0.00051179,0.0231128,-0.00886405,0.00122321,0.0979252,0.0979252,0.0979252,0.0979252,0.0979252,0.0979252,0.0979252,0.0979252,0.0979252,-0.902075,0.721688,0.0766256,1.15778,0.0231128,-0.00886405,0.00122321,-0.0056448,0.010291,0.00897903,-0.00159484,-0.00209984,-3.43621e-05,0.0979252,0.57817,4.70394,-0.0607381,-0.117741,-0.42378,0.258077,0.981053,-4.30327,0.0496844,-0.297281,-0.0417808,-0.169048,0.423886,-0.151488,-0.813229,-0.0056448,0.010291,0.00897903,-0.00159484,-0.00209984,-3.43621e-05,0,0,0,0,0,0,0,0,0,-0.000338778,0.00232136,0.000133281,0.00238082,-0.000330592,-0.000637752,-0.000300813,-0.000415976,0.000413381,0.000289735,-2.28306e-05,-0.00129887
1711,0.00051179,-0.000912871,-0.00298404,-0.00286007,0.0410209,0.0410209,0.0410209,0.0410209,0.0410209,0.0410209,0.0410209,0.0410209,0.0410209,-0.908096,0.629325,-0.958979,1.46299,-0.000912871,-0.00298404,-0.00286007,-0.00374666,0.000263235,0.000825685,-0.00644836,-0.00256873,0.000973019,0.0410209,0.00188561,-0.00976307,-0.000528894,0.00214673,-0.000494873,0.000677865,-0.000304794,0.0111708,-0.00062752,0.00184529,9.20901e-05,-8.61667e-05,-0.00100798,-0.00151533,0.00325103,-0.00374666,0.000263235,0.000825685,-0.00644836,-0.00256873,0.000973019,0,0,0,0,0,0,0,0,0,-0.000368573,1.63231e-06,-0.000227135,-0.000442799,-0.000322366,0.000224478,-2.44418e-05,9.16356e-05,0.000295721,0.000457834,-0.000116402,8.22606e-06
1712,0.00051179,-0.00529416,-0.00262045,0.00548588,0.0812667,0.0812667,0.0812667,0.0812667,0.0812667,0.0812667,0.0812667,0.0812667,0.0812667,-0.918733,0.451456,0.60274,1.18793,-0.00529416,-0.00262045,0.00548588,-0.000605699,0.00117734,-0.000412008,0.00320081,-0.00282919,0.00569921,0.0812667,0.00298007,-0.039428,-0.000997297,0.017666,-0.00130479,-0.00397483,0.0466891,0.0460269,0.00275264,-0.00845111,-0.00069011,-1.05313e-05,-0.00659443,0.00587352,-0.0521644,-0.000605699,0.00117734,-0.000412008,0.00320081,-0.00282919,0.00569921,0,0,0,0,0,0,0,0,0,-0.000568651,-1.10903e-05,0.000268008,-0.000280399,-0.000329996,-0.000266208,6.80508e-06,1.55924e-06,0.000294127,0.00023653,-3.67522e-05,3.49015e-05
1713,0.00051179,0.00326745,0.0128806,-0.0170801,0.0235602,0.0235602,0.0235602,0.0235602,0.0235602,0.0235602,0.0235602,0.0235602,0.0235602,-0.97644,-0.250803,-0.595732,1.171,0.00326745,0.0128806,-0.0170801,-0.00585959,0.00417086,0.00181142,-0.0124074,0.000909709,0.00128021,0.0235602,-0.00394587,0.0430898,-0.00300621,-0.000968946,-0.000407835,-0.00665395,0.0333523,-0.0459494,0.0016015,-0.00348434,-0.00504425,-0.00153032,-0.00842728,-0.00310129,-0.0147418,-0.00585959,0.00417086,0.00181142,-0.0124074,0.000909709,0.00128021,0,0,0,0,0,0,0,0,0,-0.000418968,-2.31438e-05,0.000143451,-0.000317209,-0.000302339,-0.000131805,-2.81458e-05,-4.11461e-05,0.000319526,0.000268784,-1.99279e-07,1.67782e-05
1714,0.00051179,-0.00366606,0.00224967,0.00552845,0.100072,0.100072,0.100072,0.100072,0.100072,0.100072,0.100072,0.100072,0.100072,-0.899928,-0.717615,-0.51868,1.26249,-0.00366606,0.00224967,0.00552845,-0.00342209,0.0010788,0.00133254,-0.00182494,-0.00207638,0.00270516,0.100072,-0.00246488,0.0688542,-0.00200593,0.0163513,0.000118904,-0.00556819,0.0591408,-0.0653071,0.00535123,0.016277,-0.00477695,-0.00163724,-0.034878,-0.00474034,-0.063032,-0.00342209,0.0010788,0.00133254,-0.00182494,-0.00207638,0.00270516,0,0,0,0,0,0,0,0,0,-0.00059659,-2.43627e-05,0.000478606,-0.000466705,-0.000332529,-0.000487878,2.27036e-05,-0.000179088,0.00031428,0.000424348,0.000110555,-5.10376e-06
1715,0.00051179,0.000395304,-0.00464464,0.00698897,0.0668457,0.0668457,0.0668457,0.0668457,0.0668457,0.0668457,0.0668457,0.0668457,0.0668457,-0.816846,-0.0723905,0.82932,1.1663,0.000395304,-0.00464464,0.00698897,0.00175501,-0.000998667,-0.000314731,-0.00480629,-0.000529774,0.00684375,0.0668457,0.000507548,-0.00360249,7.36788e-05,0.000223469,0.000418318,0.000196911,0.000881458,0.00278887,-0.000688778,0.000274499,-0.000610131,-0.000225608,0.00414667,-6.0562e-05,-0.00764482,0.00175501,-0.000998667,-0.000314731,-0.00480629,-0.000529774,0.00684375,0,0,0,0,0,0,0,0,0,-0.000676103,7.21583e-06,-4.88858e-05,-0.000231104,-0.000334198,3.9636e-05,-3.15723e-05,1.59881e-05,0.000335954,0.000229926,-2.73871e-05,2.9819e-05
1716,0.00051179,-0.00214576,0.000735743,-0.000780658,0.0382297,0.0382297,0.0382297,0.0382297,0.0382297,0.0382297,0.0382297,0.0382297,0.0382297,-0.96177,0.541879,0.946998,1.45446,-0.00214576,0.000735743,-0.000780658,-0.00330313,-0.000637267,-0.00307137,0.00790259,-0.00389967,0.00547545,0.0382297,0.00117071,0.00294118,-2.74405e-05,-0.00340706,-0.000150034,0.000429124,-0.000261566,-0.000645385,0.000453351,-0.00141015,-0.000172754,4.90677e-05,0.00408147,-0.00202193,0.000993156,-0.00330313,-0.000637267,-0.00307137,0.00790259,-0.00389967,0.00547545,0,0,0,0,0,0,0,0,0,-0.000652619,-2.18279e-05,0.000200158,-0.000342827,-0.000314618,-0.000206805,3.06139e-05,1.40062e-05,0.000281319,0.000316404,-5.47304e-05,6.10179e-06
1717,0.00051179,0.000884973,0.00323063,-0.00602543,0.105506,0.105506,0.105506,0.105506,0.105506,0.105506,0.105506,0.105506,0.105506,-0.855506,0.380853,-0.514403,1.06843,0.000884973,0.00323063,-0.00602543,-0.00338192,0.000915302,0.00168882,0.00184883,-0.00185626,-0.00224939,0.105506,-0.000700757,0.0390976,-0.000736885,0.00643293,0.00109331,-0.00484164,0.0725334,-0.0410759,0.0186211,0.000186397,-0.00311828,0.0133392,-0.00984995,-0.00615131,-0.0798472,-0.00338192,0.000915302,0.00168882,0.00184883,-0.00185626,-0.00224939,0,0,0,0,0,0,0,0,0,-0.000477783,-2.96287e-05,-0.000255096,-0.000368287,-0.000284964,0.00025688,9.31345e-05,1.2305e-05,0.000332177,0.000336759,-6.20504e-05,-5.12188e-05
1718,0.00051179,0.0014439,0.00240656,-0.00416471,0.118398,0.118398,0.118398,0.118398,0.118398,0.118398,0.118398,0.118398,0.118398,-0.868398,0.271916,-0.635433,1.10988,0.0014439,0.00240656,-0.00416471,-0.0043942,-0.000736839,0.00226971,0.00105649,-0.00178363,-0.00290747,0.118398,0.000113025,0.0174522,-0.00185596,0.0170583,0.00128283,-0.00227779,0.0213217,-0.0201789,0.00768308,-0.00127797,-0.00222911,0.00550476,-0.0181869,-0.000835713,-0.0226618,-0.0043942,-0.000736839,0.00226971,0.00105649,-0.00178363,-0.00290747,0,0,0,0,0,0,0,0,0,-0.000413939,-2.22311e-05,-0.00016807,-0.000320866,-0.000295842,0.000142142,4.28726e-05,1.49878e-05,0.000338294,0.000320785,-5.51152e-05,-1.95412e-05
1719,0.00051179,0.000365146,0.00579037,-0.00630796,0.0162765,0.0162765,0.0162765,0.0162765,0.0162765,0.0162765,0.0162765,0.0162765,0.0162765,-0.766277,0.123513,0.717195,1.05679,0.000365146,0.00579037,-0.00630796,0.00642426,0.00110712,0.00488489,-0.00650193,0.00284401,0.00943516,0.0162765,-7.04974e-05,0.00101596,0.000289984,-0.00665004,-1.18621e-05,0.00036107,0.0117983,-0.00136925,-0.00237443,0.000393491,-0.00100974,-0.000951872,0.000466181,0.000706866,-0.00453844,0.00642426,0.00110712,0.00488489,-0.00650193,0.00284401,0.00943516,0,0,0,0,0,0,0,0,0,-0.000649117,2.29772e-05,6.49395e-05,-0.000215662,-0.000345284,-5.09685e-05,-5.31735e-05,2.07194e-05,0.000340328,0.000268122,-2.3767e-06,4.19185e-05
1720,0.00051179,-3.41319,-0.575059,0.1595,0.0026532,0.0026532,0.0026532,0.0026532,0.0026532,0.0026532,0.0026532,0.0026532,0.0026532,-0.688326,0.747477,0.102653,1.0213,-3.41319,-0.575059,0.1595,2.65117,-0.0365656,-1.9419,0.425479,0.047861,-0.330207,0.0026532,3.88131,-53.5126,-0.235646,5.47749,-2.08639,-1.25198,28.268,59.0121,0.744883,-2.62819,0.0775734,0.583398,-2.27424,0.549711,-29.0109,2.65117,-0.0365656,-1.9419,0.425479,0.047861,-0.330207,0,0,0,0,0,0,0,0,0,0.00134747,0.0235212,-0.00064615,-0.00904679,-0.000588531,-0.00207597,-0.00328935,-0.00119407,-0.000517815,-0.022892,0.00244841,-0.00804364
1721,0.00051179,0.0800991,-0.0549303,0.00243449,0.0521924,0.0521924,0.0521924,0.0521924,0.0521924,0.0521924,0.0521924,0.0521924,0.0521924,-0.802192,-0.580788,0.0693134,0.99279,0.0800991,-0.0549303,0.00243449,-0.0038771,-0.00166147,0.0450908,0.0125113,-0.0142001,0.0152379,0.0521924,1.34149,13.6949,-0.0737243,-1.53857,-1.11025,0.319423,-0.0723188,-12.6648,0.175534,0.39732,0.00662352,-0.397526,1.19618,-0.194314,0.46741,-0.0038771,-0.00166147,0.0450908,0.0125113,-0.0142001,0.0152379,0,0,0,0,0,0,0,0,0,-2.65464e-05,0.00513431,-0.000539879,0.00544135,-0.000379259,-0.000213979,-0.00061352,8.33809e-05,0.00038287,-0.0017962,-0.000159147,-0.00244913
1722,0.00051179,0.00511768,-0.00298648,-0.000311201,0.000292972,0.000292972,0.000292972,0.000292972,0.000292972,0.000292972,0.000292972,0.000292972,0.000292972,-0.893123,-0.0847981,0.999707,1.34323,0.00511768,-0.00298648,-0.000311201,0.00186248,-0.000860033,-0.00029709,0.00595372,-0.00117974,0.0051779,0.000292972,0.000814632,-0.00130347,-0.00039997,-0.000593765,0.000147452,0.000241026,0.00313046,-0.00396166,-0.000705006,0.000424596,0.000171027,5.12724e-06,0.00315565,-0.00132403,-0.00282439,0.00186248,-0.000860033,-0.00029709,0.00595372,-0.00117974,0.0051779,0,0,0,0,0,0,0,0,0,-0.00071723,-2.06386e-07,-5.98645e-05,-0.000258374,-0.000333631,4.72645e-05,1.26516e-05,1.69003e-05,0.000321008,0.000257813,-2.69874e-05,5.6774e-06
1723,0.00051179,-0.00834346,-0.00613536,-0.00744367,0.0657631,0.0657631,0.0657631,0.0657631,0.0657631,0.0657631,0.0657631,0.0657631,0.0657631,-0.924639,-0.934237,0.25648,1.33923,-0.00834346,-0.00613536,-0.00744367,-0.00566731,-0.00072898,-0.0228883,-0.00237418,0.00396518,-0.00840151,0.0657631,0.0408845,0.185284,0.0277134,-0.100097,0.303674,0.054878,-0.359292,-0.480614,-0.00103958,-0.0289405,-0.0218923,-0.223684,0.135173,-0.0440775,0.59042,-0.00566731,-0.00072898,-0.0228883,-0.00237418,0.00396518,-0.00840151,0,0,0,0,0,0,0,0,0,-0.000163332,0.000199942,-0.000994893,-0.000358477,-0.000310117,0.00126474,6.78763e-06,-0.000309043,0.000296831,0.000678375,0.000129771,-0.000238539
1724,0.00051179,0.00842926,-0.00794408,0.00673079,0.120665,0.120665,0.120665,0.120665,0.120665,0.120665,0.120665,0.120665,0.120665,-0.879335,-0.199038,0.0030222,0.901584,0.00842926,-0.00794408,0.00673079,0.00648999,-0.00424071,0.0019218,-0.00064736,-0.00370418,-0.00193399,0.120665,0.00340737,0.0298629,0.00627477,-0.113327,0.0320035,0.156496,0.918488,-0.0702956,0.0174724,0.0286243,-0.0841077,0.287627,0.0926467,-0.0184934,-1.21285,0.00648999,-0.00424071,0.0019218,-0.00064736,-0.00370418,-0.00193399,0,0,0,0,0,0,0,0,0,-0.00054688,4.22233e-05,3.39088e-05,0.00130116,-0.00035801,-1.35682e-05,7.68618e-05,-0.000645623,0.000424147,0.00028302,-0.000232496,-0.0001094
1725,0.00051179,-0.000439279,0.000761624,0.00201374,0.110231,0.110231,0.110231,0.110231,0.110231,0.110231,0.110231,0.110231,0.110231,-0.860231,-0.334997,0.792242,1.2165,-0.000439279,0.000761624,0.00201374,-0.000419449,-0.00184076,-0.000253702,-0.000309323,-0.0016255,0.00446971,0.110231,0.000402585,-0.00273891,0.000187106,-0.00311829,-0.000521322,0.000118349,0.0048936,0.00369951,-0.000709401,-0.000477131,-0.000698031,0.000290751,0.0028338,-0.000135757,-0.00719809,-0.000419449,-0.00184076,-0.000253702,-0.000309323,-0.0016255,0.00446971,0,0,0,0,0,0,0,0,0,-0.000635855,-3.89012e-06,-0.000189337,-0.000252547,-0.00033387,0.000172801,-8.89943e-06,6.34782e-07,0.000332378,0.000251194,-2.38701e-05,1.7864e-05
1726,0.00051179,-0.00530285,-0.0553531,-0.00982666,0.0173229,0.0173229,0.0173229,0.0173229,0.0173229,0.0173229,0.0173229,0.0173229,0.0173229,-0.732677,-0.468058,0.00337441,0.869428,-0.00530285,-0.0553531,-0.00982666,-0.00214741,0.016062,0.0900234,-0.00117812,-0.00925571,-0.00416102,0.0173229,0.109464,0.850979,-0.0217883,-0.0903926,-0.100879,0.644732,-4.31186,-0.744796,0.0207531,-0.0236699,-0.25252,-0.920638,0.169416,-0.0117216,5.24233,-0.00214741,0.016062,0.0900234,-0.00117812,-0.00925571,-0.00416102,0,0,0,0,0,0,0,0,0,-0.000518166,0.000408497,-8.51622e-05,0.0138497,-0.000372315,2.78992e-05,-3.0213e-05,-0.00290583,0.000222713,-0.00650211,0.000288075,-0.000207501
1727,0.00051179,0.0278149,-0.0156403,-0.0747203,0.0387987,0.0387987,0.0387987,0.0387987,0.0387987,0.0387987,0.0387987,0.0387987,0.0387987,-0.842084,0.961201,-0.0793089,1.28035,0.0278149,-0.0156403,-0.0747203,-0.0129192,-0.0212061,-0.0470065,0.00193727,-0.00684759,0.0593436,0.0387987,-0.688363,-7.48921,0.0852702,0.884134,-1.68334,0.611973,1.49628,9.14473,-0.000929849,-0.0510639,-0.0231188,0.514598,-0.81743,0.459319,-1.93616,-0.0129192,-0.0212061,-0.0470065,0.00193727,-0.00684759,0.0593436,0,0,0,0,0,0,0,0,0,-0.0010239,-0.00329686,-0.00117963,0.00320598,-9.86699e-05,0.00182027,0.000214589,-0.00163811,0.000593677,0.00244368,0.00133845,0.00280287
1728,0.00051179,0.000949876,0.00130043,-0.00691224,0.0142866,0.0142866,0.0142866,0.0142866,0.0142866,0.0142866,0.0142866,0.0142866,0.0142866,-0.916164,0.985713,0.704479,1.51897,0.000949876,0.00130043,-0.00691224,-0.00109763,0.000156261,-0.00286281,0.000229266,-0.000179057,0.0109938,0.0142866,0.0011083,-0.00690661,0.000340052,-0.00262498,-0.00142267,-0.00025399,0.00745393,0.0073794,-0.000303553,0.00350424,-0.000875766,0.00380801,-0.00217969,-0.00160064,-0.00434971,-0.00109763,0.000156261,-0.00286281,0.000229266,-0.000179057,0.0109938,0,0,0,0,0,0,0,0,0,-0.000425987,-1.07115e-05,0.000352465,-0.000548782,-0.000327552,-0.000347502,-1.11363e-05,4.02468e-05,0.000267476,0.000517614,-5.0795e-05,3.6201e-05
1729,0.00051179,-0.0480683,-0.0103986,-0.00432023,0.0120457,0.0120457,0.0120457,0.0120457,0.0120457,0.0120457,0.0120457,0.0120457,0.0120457,-0.987954,0.288624,0.178566,1.04463,-0.0480683,-0.0103986,-0.00432023,0.0146456,-0.0174677,0.00986321,0.0153502,0.0253533,0.0226642,0.0120457,0.186804,0.613363,0.0423198,0.236004,-0.0194922,-0.0234261,-0.249295,-0.545802,0.0818371,-0.048072,-0.0148726,-0.0271456,-0.177534,-0.0369468,0.28076,0.0146456,-0.0174677,0.00986321,0.0153502,0.0253533,0.0226642,0,0,0,0,0,0,0,0,0,-0.000506647,0.000679146,0.0001257,1.98072e-05,-0.000292862,0.000122821,0.000157836,-1.66393e-05,0.000333093,-0.000155436,0.000121446,-0.000399514
1730,0.00051179,-0.00327621,0.000246935,-0.00492144,0.0768027,0.0768027,0.0768027,0.0768027,0.0768027,0.0768027,0.0768027,0.0768027,0.0768027,-0.826803,-0.226778,-0.686256,1.09817,-0.00327621,0.000246935,-0.00492144,-0.00830562,0.000919633,0.00165433,0.00246817,-0.00352045,-0.00463803,0.0768027,0.00039871,0.010905,-0.00123536,0.0100911,-0.000717509,-0.000950463,0.017771,-0.00691131,0.00623761,0.00670965,-0.00229997,-0.00196469,-0.0170477,0.000278778,-0.0108849,-0.00830562,0.000919633,0.00165433,0.00246817,-0.00352045,-0.00463803,0,0,0,0,0,0,0,0,0,-0.000389479,-3.54264e-05,0.00012959,-0.000322341,-0.000318015,-0.000132747,4.7637e-05,-5.87173e-05,0.000364386,0.00032938,5.1321e-07,-1.76881e-05
1731,0.00051179,0.00135092,-0.00102362,0.00304347,0.0690426,0.0690426,0.0690426,0.0690426,0.0690426,0.0690426,0.0690426,0.0690426,0.0690426,-0.894142,0.382688,0.930957,1.34634,0.00135092,-0.00102362,0.00304347,-0.00144816,-0.000148353,-0.00138057,0.00453601,-0.000909628,0.00473873,0.0690426,0.00118096,-0.00138907,-0.000133805,-0.00276717,-0.000130879,0.000423178,0.0019019,0.00016903,-0.000334458,-0.000723107,-0.000232947,-0.000227991,0.0045139,-0.00122214,-0.00471738,-0.00144816,-0.000148353,-0.00138057,0.00453601,-0.000909628,0.00473873,0,0,0,0,0,0,0,0,0,-0.000677012,-9.93323e-06,0.000153902,-0.0003074,-0.0003308,-0.000156723,1.24105e-05,1.83432e-05,0.000308402,0.000297826,-2.9769e-05,8.98573e-06
1732,0.00051179,-0.004001,-0.0107208,-0.00252621,0.0356744,0.0356744,0.0356744,0.0356744,0.0356744,0.0356744,0.0356744,0.0356744,0.0356744,-0.785674,-0.0908983,0.411995,0.891788,-0.004001,-0.0107208,-0.00252621,0.00108499,0.00174415,0.00129861,0.000279479,0.00549174,-0.00652861,0.0356744,0.000413314,-0.0201316,-0.000188939,0.00351915,0.00109551,-0.00373618,0.070801,0.0230371,-0.00640224,0.00544844,-0.000441373,-0.00544013,0.00175324,0.00647167,-0.0628347,0.00108499,0.00174415,0.00129861,0.000279479,0.00549174,-0.00652861,0,0,0,0,0,0,0,0,0,-0.000582963,1.28931e-05,-6.92849e-05,-0.000282899,-0.000340933,8.48371e-05,-2.52122e-05,6.78709e-05,0.00033313,0.000258523,-1.73672e-05,5.11691e-06
1733,0.00051179,-0.000103055,0.00162746,0.00245788,0.0959758,0.0959758,0.0959758,0.0959758,0.0959758,0.0959758,0.0959758,0.0959758,0.0959758,-0.904024,-0.241173,0.779769,1.21798,-0.000103055,0.00162746,0.00245788,-0.00363857,-0.00163548,-0.000999581,0.00503494,-0.000174813,0.00347245,0.0959758,0.000631884,-0.0075986,0.000341125,-0.00476969,-0.000367959,-0.000434749,0.0129453,0.00806962,-0.000886576,8.10512e-05,-0.000657857,-3.50409e-05,0.00306117,0.000378616,-0.0153682,-0.00363857,-0.00163548,-0.000999581,0.00503494,-0.000174813,0.00347245,0,0,0,0,0,0,0,0,0,-0.000647843,-2.07943e-05,-0.000140826,-0.000237671,-0.000340188,0.000127882,1.4981e-05,1.25655e-05,0.000319682,0.000223327,-2.08922e-05,1.34945e-05
1734,0.00051179,0.000799637,-4.2574e-05,-0.00601606,0.0844548,0.0844548,0.0844548,0.0844548,0.0844548,0.0844548,0.0844548,0.0844548,0.0844548,-0.834455,0.626098,-0.802293,1.31605,0.000799637,-4.2574e-05,-0.00601606,-0.00656602,-0.000369938,0.000373229,0.00048073,0.00261565,-0.000843646,0.0844548,0.000318602,0.0076608,-0.000708781,0.00437611,0.000161472,0.00012384,-0.00215566,-0.00862191,0.000227822,-0.00083365,-0.00040179,0.000517294,-0.00349989,0.000495482,0.00765442,-0.00656602,-0.000369938,0.000373229,0.00048073,0.00261565,-0.000843646,0,0,0,0,0,0,0,0,0,-0.000436187,-2.44444e-05,-0.000286662,-0.000434567,-0.000288958,0.000275874,1.03355e-05,0.000106766,0.000330277,0.000439538,-8.46277e-05,5.05191e-06
1735,0.00051179,0.00809265,0.00384625,-0.00339362,0.0924411,0.0924411,0.0924411,0.0924411,0.0924411,0.0924411,0.0924411,0.0924411,0.0924411,-0.842441,0.0458175,0.358307,0.916619,0.00809265,0.00384625,-0.00339362,-0.00107848,0.00201444,-0.00130744,0.00387232,-0.00276327,-0.00121498,0.0924411,0.00347437,-0.103374,0.000972576,-0.0255395,0.0076055,-0.0117819,0.12813,0.0876762,0.019356,-0.0330954,-0.00202797,-0.0318552,0.0547887,0.0141742,-0.0928813,-0.00107848,0.00201444,-0.00130744,0.00387232,-0.00276327,-0.00121498,0,0,0,0,0,0,0,0,0,-0.000566073,-3.25399e-05,5.54976e-05,-0.000362982,-0.000341142,-2.56274e-05,7.16221e-05,-5.19284e-06,0.000314526,0.000232088,-4.27196e-05,2.02768e-05
1736,0.00051179,-0.00285335,0.00106808,-0.00913122,0.0402238,0.0402238,0.0402238,0.0402238,0.0402238,0.0402238,0.0402238,0.0402238,0.0402238,-0.818941,-0.0287308,-0.959776,1.26201,-0.00285335,0.00106808,-0.00913122,-0.00807581,-0.000587072,0.000887312,0.00207061,-0.000919994,-0.00188122,0.0402238,0.00130148,-0.00392587,-0.000225447,0.00193473,1.60349e-05,0.000803422,-0.00112638,0.00676319,-0.000111954,0.000734441,-0.000125883,-4.58889e-05,-0.00373726,-0.000573438,0.0103035,-0.00807581,-0.000587072,0.000887312,0.00207061,-0.000919994,-0.00188122,0,0,0,0,0,0,0,0,0,-0.00029023,-2.54828e-05,8.65452e-06,-0.000332609,-0.000306034,-1.67797e-05,1.81821e-05,8.46456e-06,0.000368327,0.000349517,-1.89233e-05,-3.88447e-06
1737,0.00051179,0.0378148,-0.0200823,-0.0365652,0.0609339,0.0609339,0.0609339,0.0609339,0.0609339,0.0609339,0.0609339,0.0609339,0.0609339,-0.812201,0.939066,0.295826,1.27633,0.0378148,-0.0200823,-0.0365652,-0.000224363,0.00136366,-0.00346367,-0.00609064,0.0369103,0.00310804,0.0609339,0.00244732,-0.0789745,-0.00588285,0.163308,0.0793255,0.0176002,-0.340312,-0.0381659,-0.00762947,0.158646,0.0229143,-0.277223,-0.301872,-0.0632837,0.6541,-0.000224363,0.00136366,-0.00346367,-0.00609064,0.0369103,0.00310804,0,0,0,0,0,0,0,0,0,-0.000188209,9.38142e-05,0.000699877,-0.000820509,-0.000458891,-0.000745069,1.40988e-05,0.000559947,0.000339843,0.000961874,3.82988e-05,-0.000218179
1738,0.00051179,0.129992,0.0581818,0.101707,0.00644231,0.00644231,0.00644231,0.00644231,0.00644231,0.00644231,0.00644231,0.00644231,0.00644231,-0.743558,0.354583,-0.112628,0.83144,0.129992,0.0581818,0.101707,-0.049389,-0.0715251,0.0788059,-0.00353995,-0.0227371,0.00785147,0.00644231,-1.44526,-8.54046,-0.385525,-2.17927,0.0281834,-0.644514,-10.1327,8.38228,-0.550068,-0.458671,-0.187956,-0.0134208,2.57976,-0.513399,10.0444,-0.049389,-0.0715251,0.0788059,-0.00353995,-0.0227371,0.00785147,0,0,0,0,0,0,0,0,0,-0.00117824,-0.00452654,-0.00236717,-0.00264093,-0.000499243,-0.00220334,0.000178653,-0.00139758,0.000192128,-0.00301616,-0.000709348,0.000418957
1739,0.00051179,-0.0172356,-0.000775419,-0.0169006,0.0494735,0.0494735,0.0494735,0.0494735,0.0494735,0.0494735,0.0494735,0.0494735,0.0494735,-0.950526,0.239299,-0.365399,1.04608,-0.0172356,-0.000775419,-0.0169006,-0.00537082,0.000589032,-0.000799912,0.00767521,-0.00628558,-0.00234393,0.0494735,-0.0410299,0.257554,-0.000776403,0.00873212,-0.0132922,-0.0389092,0.0376182,-0.227026,-0.0192464,0.0205235,-0.00806962,-0.0312107,-0.0284802,-0.0185647,0.0104931,-0.00537082,0.000589032,-0.000799912,0.00767521,-0.00628558,-0.00234393,0,0,0,0,0,0,0,0,0,-0.000506483,-0.000140987,-0.000142294,-0.00046653,-0.00032329,0.000140421,3.316e-05,-9.61619e-05,0.00031276,6.94389e-05,-4.73901e-05,-1.35272e-05
1740,0.00051179,0.00897159,-0.00450087,0.00736552,0.010463,0.010463,0.010463,0.010463,0.010463,0.010463,0.010463,0.010463,0.010463,-0.760463,0.405226,0.952492,1.28443,0.00897159,-0.00450087,0.00736552,0.013025,-0.00983675,-0.00457663,-0.00360813,0.00110119,0.0099224,0.010463,0.000731066,-0.00691871,-0.000352643,0.000218037,9.25783e-05,0.000495039,-9.15866e-05,-0.00214545,-0.00124081,-0.000947524,-9.13693e-05,-0.000177812,0.00523036,-0.00103889,-0.00709613,0.013025,-0.00983675,-0.00457663,-0.00360813,0.00110119,0.0099224,0,0,0,0,0,0,0,0,0,-0.000678599,4.82527e-05,0.000163863,-0.000310583,-0.000353957,-0.000265757,-4.47724e-05,1.80381e-05,0.000350431,0.000269767,-7.9399e-06,2.38899e-05
1741,0.00051179,-0.0005296,0.0104896,-0.0059135,0.0654358,0.0654358,0.0654358,0.0654358,0.0654358,0.0654358,0.0654358,0.0654358,0.0654358,-0.815436,0.16608,-0.700955,1.08805,-0.0005296,0.0104896,-0.0059135,-0.00772332,0.00121536,0.00179831,0.00613825,-0.000399173,-0.00390406,0.0654358,0.000361934,0.00744546,-0.00104552,0.0100499,0.000628707,-0.000688549,0.0115257,-0.00754457,0.00651343,-0.00767425,-0.00176301,0.00262822,-0.0128652,0.00092588,-0.00824043,-0.00772332,0.00121536,0.00179831,0.00613825,-0.000399173,-0.00390406,0,0,0,0,0,0,0,0,0,-0.000380479,-3.94748e-05,-9.98252e-05,-0.000320787,-0.000295723,0.000101524,6.05906e-05,1.40303e-05,0.000361837,0.000331884,-3.56522e-05,-1.75587e-05
1742,0.00051179,0.00884601,-0.000886343,-0.00441131,0.0684481,0.0684481,0.0684481,0.0684481,0.0684481,0.0684481,0.0684481,0.0684481,0.0684481,-0.912646,-0.931552,-0.872386,1.569,0.00884601,-0.000886343,-0.00441131,-0.00262523,0.00197076,0.0004916,-0.00116212,-0.000322853,2.08928e-05,0.0684481,0.00197162,-0.0121023,-0.000758462,0.00233962,-0.00235488,0.000896744,0.00083476,0.00561118,-0.000858309,-0.00227902,-0.000205557,-0.0031862,0.000825746,-0.000713557,0.00676275,-0.00262523,0.00197076,0.0004916,-0.00116212,-0.000322853,2.08928e-05,0,0,0,0,0,0,0,0,0,-0.000506274,6.16612e-07,0.000309725,-0.00051094,-0.000283116,-0.000297602,-6.21748e-06,-0.000115602,0.000277571,0.000524823,0.000110318,4.21333e-07
1743,0.00051179,0.00281446,0.00344932,-0.00467318,0.0913405,0.0913405,0.0913405,0.0913405,0.0913405,0.0913405,0.0913405,0.0913405,0.0913405,-0.90866,0.158745,-0.672108,1.14131,0.00281446,0.00344932,-0.00467318,-0.00351803,-0.000936427,0.00142173,-0.00242938,-0.0015629,-0.00167088,0.0913405,-0.000872597,0.0228563,-0.00247221,0.0157531,0.000525714,-0.00212085,0.0123304,-0.0261965,0.00428127,0.00099175,-0.00248882,0.00434429,-0.0201942,-0.0010958,-0.0120016,-0.00351803,-0.000936427,0.00142173,-0.00242938,-0.0015629,-0.00167088,0,0,0,0,0,0,0,0,0,-0.000386454,-1.58315e-05,-9.93912e-05,-0.000315197,-0.000303531,6.53048e-05,1.53811e-05,2.72015e-06,0.000331998,0.000308206,-4.32374e-05,-7.71177e-06
1744,0.00051179,0.00808012,-0.00556977,-0.00241995,0.0856399,0.0856399,0.0856399,0.0856399,0.0856399,0.0856399,0.0856399,0.0856399,0.0856399,-0.83564,-0.666049,0.288072,1.10675,0.00808012,-0.00556977,-0.00241995,-0.00140736,0.00220809,-0.0144429,-0.00753045,-0.00674313,0.01003,0.0856399,0.0465288,-1.14526,0.0119504,-0.08477,-0.0701037,-0.0684881,0.814351,1.20728,-0.0428962,-0.0144641,-0.0148535,0.224883,0.104804,0.0828934,-1.03681,-0.00140736,0.00220809,-0.0144429,-0.00753045,-0.00674313,0.01003,0,0,0,0,0,0,0,0,0,-0.000335895,0.000124509,-0.000488008,-0.00112091,-0.000293458,0.000629593,-0.000353231,-9.93191e-05,0.000300273,0.000291603,-0.000116647,0.000363519
1745,0.00051179,0.00583737,-0.00223361,0.00623047,0.0286345,0.0286345,0.0286345,0.0286345,0.0286345,0.0286345,0.0286345,0.0286345,0.0286345,-0.812575,0.21955,0.971365,1.28531,0.00583737,-0.00223361,0.00623047,0.00454788,-0.000845623,-0.000141671,-0.00100706,0.00125533,0.00948804,0.0286345,0.000883535,-0.00358652,-0.00037422,-0.00102898,-5.23443e-05,0.00046156,4.0742e-05,-0.0021985,-0.00124145,-0.000928426,-4.30364e-05,-0.000291318,0.00419102,-0.00119955,-0.00597989,0.00454788,-0.000845623,-0.000141671,-0.00100706,0.00125533,0.00948804,0,0,0,0,0,0,0,0,0,-0.00070817,1.39208e-05,6.94348e-05,-0.000291621,-0.000339175,-8.16333e-05,-2.44787e-05,2.24823e-05,0.000336416,0.00029482,-1.03593e-05,2.82062e-05
1746,0.00051179,0.00121272,-0.00311589,0.000383879,0.0695188,0.0695188,0.0695188,0.0695188,0.0695188,0.0695188,0.0695188,0.0695188,0.0695188,-0.819519,0.815197,0.877614,1.45133,0.00121272,-0.00311589,0.000383879,0.00552714,-0.00243042,0.000503536,0.00296515,0.00328609,0.00562783,0.0695188,0.000803426,-0.00167284,-3.87356e-05,-0.00141449,3.62034e-05,0.000359751,-0.000366028,0.000423912,-0.000697004,0.00127101,-0.000599785,0.000151644,0.00325937,-0.000860643,-0.000169495,0.00552714,-0.00243042,0.000503536,0.00296515,0.00328609,0.00562783,0,0,0,0,0,0,0,0,0,-0.000565097,1.62306e-05,0.000260975,-0.000444268,-0.000349039,-0.000285667,-4.08145e-06,5.7105e-05,0.000323348,0.000452901,-3.0242e-05,8.41375e-06
1747,0.00051179,-0.0191372,-0.00582375,0.0238599,0.0314442,0.0314442,0.0314442,0.0314442,0.0314442,0.0314442,0.0314442,0.0314442,0.0314442,-0.968556,0.439288,0.499241,1.17487,-0.0191372,-0.00582375,0.0238599,0.00461373,-0.00270934,-0.00719441,0.0142886,-0.00479465,-0.00172554,0.0314442,0.0139339,-0.110642,-0.00033354,-0.0215255,-0.0066356,-0.015822,0.0690783,0.136415,0.0063179,-0.0583761,-0.00512297,-0.00479458,0.0857254,0.0149425,-0.0881435,0.00461373,-0.00270934,-0.00719441,0.0142886,-0.00479465,-0.00172554,0,0,0,0,0,0,0,0,0,-0.00054235,3.23098e-05,0.000291501,-0.000298507,-0.000312889,-0.00032193,4.26044e-05,-5.59828e-05,0.000283666,6.83434e-05,-4.31933e-05,5.65673e-06
1748,0.00051179,0.00139075,0.0130893,-0.0198001,0.0173718,0.0173718,0.0173718,0.0173718,0.0173718,0.0173718,0.0173718,0.0173718,0.0173718,-0.767372,0.079016,0.496201,0.917234,0.00139075,0.0130893,-0.0198001,-0.00342273,0.00210584,0.00719566,-0.00174236,-0.00090881,-0.00658764,0.0173718,4.77582e-05,-0.0173854,0.000305064,-0.0029203,-0.000307889,-0.00075347,0.0482094,0.0163025,-0.0156833,-0.00827033,-0.000336394,0.000308886,-0.00189869,0.00289963,-0.0287181,-0.00342273,0.00210584,0.00719566,-0.00174236,-0.00090881,-0.00658764,0,0,0,0,0,0,0,0,0,-0.000604101,1.13813e-05,6.2086e-05,-0.000238538,-0.000346178,-3.7977e-05,-5.88723e-05,1.22248e-06,0.000334926,0.00030296,-1.36745e-05,9.8161e-06
1749,0.00051179,-0.0276372,0.0361688,-0.0604711,0.0706819,0.0706819,0.0706819,0.0706819,0.0706819,0.0706819,0.0706819,0.0706819,0.0706819,-0.67356,0.329278,0.0293181,0.750311,-0.0276372,0.0361688,-0.0604711,0.0338268,-0.016167,0.00722802,0.00055822,-0.0186707,-0.00174922,0.0706819,0.692728,2.38987,0.343099,2.11193,0.478502,0.052241,-5.38476,-2.84073,0.305075,0.374611,0.347818,0.816555,-2.52271,0.126916,4.62868,0.0338268,-0.016167,0.00722802,0.00055822,-0.0186707,-0.00174922,0,0,0,0,0,0,0,0,0,-0.00018692,0.00229737,0.00171007,0.0126346,-0.000149066,0.00155926,0.000192755,0.00603866,-0.000225253,-0.0120399,-0.00274719,-0.000709576
1750,0.00051179,0.0596917,-0.0194101,-0.0145227,0.0152983,0.0152983,0.0152983,0.0152983,0.0152983,0.0152983,0.0152983,0.0152983,0.0152983,-0.984702,-0.799018,-0.0530947,1.26921,0.0596917,-0.0194101,-0.0145227,0.026256,-0.00664144,-0.0219591,-0.0135989,-0.0100716,-0.0143432,0.0152983,-0.194756,-1.62982,-0.0414231,-0.19172,0.0502157,0.279112,0.81085,1.51991,0.00476925,-0.019615,0.0399585,-0.0825738,0.230745,0.0619418,-0.713754,0.026256,-0.00664144,-0.0219591,-0.0135989,-0.0100716,-0.0143432,0,0,0,0,0,0,0,0,0,-0.000641465,-0.000692812,1.00168e-05,0.00145075,-0.000366831,-0.000490662,0.000105542,-0.000205996,0.000377044,0.00112078,0.000504865,0.000387683
1751,0.00051179,0.00262773,-0.004932,0.00316736,0.103807,0.103807,0.103807,0.103807,0.103807,0.103807,0.103807,0.103807,0.103807,-0.896193,0.508809,-0.733084,1.2647,0.00262773,-0.004932,0.00316736,-0.00230113,-0.00122564,-3.23318e-05,-0.000520794,-0.000800633,-0.000245973,0.103807,-0.000439212,0.0113255,-0.00144457,0.0125095,0.00117669,-0.000403684,-0.00576891,-0.0151299,0.000839634,-0.00292008,-0.000280604,0.00221937,-0.0046574,-0.000301767,0.000382176,-0.00230113,-0.00122564,-3.23318e-05,-0.000520794,-0.000800633,-0.000245973,0,0,0,0,0,0,0,0,0,-0.000431187,-1.02757e-05,-0.00026291,-0.000390864,-0.000299985,0.000236208,5.02025e-06,7.08181e-05,0.000314385,0.000386504,-8.16305e-05,6.8735e-07
1752,0.00051179,-0.00410956,1.03083e-05,0.000321105,0.0747057,0.0747057,0.0747057,0.0747057,0.0747057,0.0747057,0.0747057,0.0747057,0.0747057,-0.925294,-0.704737,0.707327,1.3613,-0.00410956,1.03083e-05,0.000321105,0.00087426,-0.00108621,-0.000680473,0.0055217,0.00814313,0.00274854,0.0747057,0.00125326,-0.0148777,0.000776775,-0.00559205,0.000521184,-0.00131729,0.0256238,0.0184661,0.000150187,-0.00186725,-0.00142312,0.000369231,0.00744899,0.000385113,-0.0263142,0.00087426,-0.00108621,-0.000680473,0.0055217,0.00814313,0.00274854,0,0,0,0,0,0,0,0,0,-0.000505246,-1.97746e-06,-0.000374588,-0.000355368,-0.00035491,0.000371494,1.57444e-05,2.39898e-05,0.000312366,0.00033539,4.32104e-05,3.0532e-06
1753,0.00051179,-0.00129499,-0.0065764,0.0216104,0.0663316,0.0663316,0.0663316,0.0663316,0.0663316,0.0663316,0.0663316,0.0663316,0.0663316,-0.816332,-0.503428,0.463438,1.06518,-0.00129499,-0.0065764,0.0216104,-8.70675e-05,0.000864089,0.00617439,-0.0109188,0.00067174,0.00929144,0.0663316,0.00132002,-0.0480103,0.000242896,0.00279094,-0.00390315,-0.00482533,0.0818094,0.0532084,-0.0084707,0.0114848,-0.000727164,0.0105809,-0.00769938,0.00867022,-0.114001,-8.70675e-05,0.000864089,0.00617439,-0.0109188,0.00067174,0.00929144,0,0,0,0,0,0,0,0,0,-0.000506379,6.3896e-06,-0.000380358,-0.000302815,-0.000316257,0.000391428,-9.67225e-05,2.1943e-05,0.000334553,0.000316306,-2.24973e-05,9.00331e-05
1754,0.00051179,0.0498447,0.0893265,-0.0609047,0.00395943,0.00395943,0.00395943,0.00395943,0.00395943,0.00395943,0.00395943,0.00395943,0.00395943,-0.753959,-0.219843,0.156836,0.800864,0.0498447,0.0893265,-0.0609047,0.0174147,-0.129398,-0.120571,0.00536611,0.0889141,0.078558,0.00395943,0.129361,-6.02235,-0.0515173,1.29378,0.14664,-0.147459,3.7105,5.82587,0.19781,0.256515,0.0788883,-0.218471,-1.63962,0.207722,-3.43113,0.0174147,-0.129398,-0.120571,0.00536611,0.0889141,0.078558,0,0,0,0,0,0,0,0,0,-0.000350535,-2.37167e-07,-0.000962448,-0.00274593,-0.000453258,-0.000846705,0.000281767,0.00129269,0.000310995,6.56306e-05,0.000385331,0.000697288
1755,0.00051179,0.0315048,0.0183908,-0.0013352,0.0642818,0.0642818,0.0642818,0.0642818,0.0642818,0.0642818,0.0642818,0.0642818,0.0642818,-0.935718,0.0606447,0.276473,0.977591,0.0315048,0.0183908,-0.0013352,0.0045361,-0.00513825,-0.00157695,-0.00246797,0.00502957,0.0123826,0.0642818,0.038896,-0.0649446,0.0140484,-0.0518941,0.0606537,-0.0239981,-0.219366,-0.027214,0.0663708,-0.022176,-0.0116957,-0.0878796,0.0556793,-0.000140149,0.308581,0.0045361,-0.00513825,-0.00157695,-0.00246797,0.00502957,0.0123826,0,0,0,0,0,0,0,0,0,-0.000534497,7.91868e-05,6.2875e-05,-0.000349511,-0.000337327,2.62266e-05,0.00018154,-3.15877e-05,0.00029815,9.37609e-05,-3.5074e-05,-7.67619e-05
1756,0.00051179,0.00320658,-0.00420731,-0.000663108,0.061983,0.061983,0.061983,0.061983,0.061983,0.061983,0.061983,0.061983,0.061983,-0.938017,0.930868,-0.855657,1.57434,0.00320658,-0.00420731,-0.000663108,0.001037,-0.00160229,0.00243616,-0.00252548,-0.00627359,-0.00296769,0.061983,0.00215824,-0.010583,-0.000640087,0.00113427,0.00256485,0.00128038,-0.00473692,0.00481161,-0.000596927,0.000412782,0.000268499,0.000873693,0.00266026,-0.000967383,0.00452634,0.001037,-0.00160229,0.00243616,-0.00252548,-0.00627359,-0.00296769,0,0,0,0,0,0,0,0,0,-0.000503406,2.04326e-05,-0.000321917,-0.000564117,-0.000325495,0.000299493,-1.11556e-05,8.9442e-05,0.000235379,0.000601282,-0.000149493,-1.52189e-05
1757,0.00051179,-0.425526,0.0455539,0.298216,0.00165413,0.00165413,0.00165413,0.00165413,0.00165413,0.00165413,0.00165413,0.00165413,0.00165413,-0.74536,0.708018,0.164786,1.04116,-0.425526,0.0455539,0.298216,-0.0553294,-0.0106967,-0.697161,-0.0511341,-0.0281494,0.48773,0.00165413,0.0723729,-13.7566,-0.0282488,2.22007,-0.186222,-0.154218,17.1802,14.3684,0.0266766,-0.314205,0.0704627,0.490846,-1.95142,0.373613,-17.9692,-0.0553294,-0.0106967,-0.697161,-0.0511341,-0.0281494,0.48773,0,0,0,0,0,0,0,0,0,6.12363e-05,-0.000900086,0.000188828,-0.00811134,-0.000479782,-0.000578282,-0.00110759,-0.000171072,0.000208214,-0.000402447,0.000594205,0.00332141
1758,0.00051179,-0.00072129,0.000925514,0.00299962,0.110057,0.110057,0.110057,0.110057,0.110057,0.110057,0.110057,0.110057,0.110057,-0.889943,0.0894907,0.737559,1.15931,-0.00072129,0.000925514,0.00299962,-0.00327234,-0.000680082,0.000117894,0.00361095,-0.000343714,0.00426272,0.110057,0.000295952,-0.00767575,0.000354357,-0.00268459,0.000786429,-0.000568327,0.0158171,0.00761061,-0.00134187,0.000138234,-0.000936464,-0.00109527,0.00162084,0.00114617,-0.0177214,-0.00327234,-0.000680082,0.000117894,0.00361095,-0.000343714,0.00426272,0,0,0,0,0,0,0,0,0,-0.00065545,-2.03069e-05,4.33034e-05,-0.000222301,-0.000336552,-4.65606e-05,5.92052e-06,8.23833e-06,0.000313751,0.000217796,-2.10401e-05,2.16195e-05
1759,0.00051179,0.00150441,-0.00309823,-0.00653517,0.0498358,0.0498358,0.0498358,0.0498358,0.0498358,0.0498358,0.0498358,0.0498358,0.0498358,-0.950164,-0.777827,-0.253207,1.25377,0.00150441,-0.00309823,-0.00653517,0.00174248,0.00369029,0.0235584,-0.00378282,0.0215384,0.0118929,0.0498358,-0.178177,-0.166712,-0.0473242,0.0654661,0.0807277,-0.0669366,-0.6117,0.0844803,-0.00703453,-0.07688,-0.0182199,0.0723847,0.0145121,-0.00808228,0.54585,0.00174248,0.00369029,0.0235584,-0.00378282,0.0215384,0.0118929,0,0,0,0,0,0,0,0,0,-0.000770546,-0.000670512,0.000580284,-0.000502436,-0.000360275,-0.00101662,0.000157577,-0.000203455,0.00029505,6.8653e-05,0.00023664,0.000230717
1760,0.00051179,0.0168599,0.0118413,0.0292234,0.0387258,0.0387258,0.0387258,0.0387258,0.0387258,0.0387258,0.0387258,0.0387258,0.0387258,-0.788726,0.531711,0.256381,0.985158,0.0168599,0.0118413,0.0292234,0.00865475,-0.00593879,-0.0344694,0.00177016,-0.023868,0.0123509,0.0387258,0.0185194,-1.1362,-0.000432245,-0.0259214,-0.0422762,-0.0499984,1.91821,1.16161,-0.0408005,-0.124261,-0.00661828,0.211476,0.138341,0.128763,-2.1589,0.00865475,-0.00593879,-0.0344694,0.00177016,-0.023868,0.0123509,0,0,0,0,0,0,0,0,0,-0.000344701,-1.32726e-05,0.000496921,-0.00179293,-0.00036546,-0.000560631,-0.000344295,-0.000254856,0.000274554,0.000948253,-5.00073e-05,0.000556425
1761,0.00051179,-0.00490522,0.000814498,-0.00981652,0.0167621,0.0167621,0.0167621,0.0167621,0.0167621,0.0167621,0.0167621,0.0167621,0.0167621,-0.857204,0.357997,-0.983238,1.35267,-0.00490522,0.000814498,-0.00981652,-0.00260074,0.00158651,0.000699982,-0.00434786,-0.00114197,-0.000585144,0.0167621,0.00174583,-0.00919061,-0.000169657,0.00190757,-0.00025648,0.000588086,0.00235743,0.0143523,-0.000810267,0.000569596,0.000146217,0.000432117,-0.00329166,-0.00132961,0.00702698,-0.00260074,0.00158651,0.000699982,-0.00434786,-0.00114197,-0.000585144,0,0,0,0,0,0,0,0,0,-0.000308111,4.87291e-06,-0.000141421,-0.000378029,-0.000307703,0.000155589,-1.66432e-05,4.95337e-05,0.000339285,0.00039091,-5.94913e-05,-4.26335e-07
1762,0.00051179,-0.150831,0.141249,0.0955005,0.00397607,0.00397607,0.00397607,0.00397607,0.00397607,0.00397607,0.00397607,0.00397607,0.00397607,-0.753976,-0.145403,-0.171506,0.786789,-0.150831,0.141249,0.0955005,-0.00475982,0.0552966,-0.033613,0.0442018,0.0832627,-0.0685162,0.00397607,-0.0418279,3.98335,0.0126659,-0.65653,-0.104062,-0.0670492,3.97605,-3.72846,-0.177653,-0.354682,0.0186386,-0.223086,0.869963,-0.154232,-3.84846,-0.00475982,0.0552966,-0.033613,0.0442018,0.0832627,-0.0685162,0,0,0,0,0,0,0,0,0,-0.000664286,0.000231816,0.00057267,-0.00174662,-0.000295067,0.000106955,-0.000202502,0.000775197,0.000364728,0.000739999,0.000243816,-0.000648987
1763,0.00051179,-0.00350294,-0.000810072,-0.00684627,0.0602971,0.0602971,0.0602971,0.0602971,0.0602971,0.0602971,0.0602971,0.0602971,0.0602971,-0.939703,0.767078,0.447016,1.29278,-0.00350294,-0.000810072,-0.00684627,-0.000907183,-0.00177408,-0.00179952,0.00606334,-0.0117114,0.00197664,0.0602971,0.00967057,-0.0980633,-0.00767415,0.0273738,-0.012463,-0.0122027,0.055921,0.114029,-0.00562938,0.0326627,0.00511561,0.0280233,-0.0592265,0.010072,-0.077098,-0.000907183,-0.00177408,-0.00179952,0.00606334,-0.0117114,0.00197664,0,0,0,0,0,0,0,0,0,-0.000387631,1.93024e-05,0.000523566,-0.000474663,-0.000324572,-0.000618048,-2.23447e-05,4.30823e-05,0.000264555,0.000334641,-0.00010904,3.57284e-05
1764,0.00051179,-0.00049361,-0.000540217,-0.01099,0.0157286,0.0157286,0.0157286,0.0157286,0.0157286,0.0157286,0.0157286,0.0157286,0.0157286,-0.86961,-0.79398,-0.984271,1.53474,-0.00049361,-0.000540217,-0.01099,-0.000856316,0.0012567,0.00199357,-0.00682131,-0.00118992,0.00451429,0.0157286,0.00156577,-0.0127706,-0.000500284,0.00322586,0.000567215,0.000303693,0.00332361,0.012697,-0.000778856,-0.00118789,-3.71793e-05,0.000483882,-0.00149775,-0.00131648,0.00718248,-0.000856316,0.0012567,0.00199357,-0.00682131,-0.00118992,0.00451429,0,0,0,0,0,0,0,0,0,-0.000412099,7.8083e-06,0.00027737,-0.000464001,-0.000283921,-0.000269806,-3.37398e-05,-0.000127832,0.000315659,0.000486974,0.000115561,2.02501e-05
1765,0.00051179,-0.00363787,0.00339762,-0.00389508,0.113327,0.113327,0.113327,0.113327,0.113327,0.113327,0.113327,0.113327,0.113327,-0.863327,-0.237853,-0.637537,1.09925,-0.00363787,0.00339762,-0.00389508,-0.00490704,0.000985793,0.000569237,-0.00064282,-0.00163749,-0.0027792,0.113327,5.93811e-05,0.0191569,-0.00182628,0.014033,-0.00108135,-0.00221123,0.0246813,-0.0144377,0.00717531,0.00304519,-0.00320003,-0.00265112,-0.0204758,-0.000849031,-0.0181351,-0.00490704,0.000985793,0.000569237,-0.00064282,-0.00163749,-0.0027792,0,0,0,0,0,0,0,0,0,-0.000405543,-2.19959e-05,0.00013654,-0.000320539,-0.000316078,-0.000144945,3.49048e-05,-5.51401e-05,0.000351958,0.000304119,6.7649e-06,-1.58988e-05
1766,0.00051179,-0.0820292,-0.0149425,-0.0438341,0.04692,0.04692,0.04692,0.04692,0.04692,0.04692,0.04692,0.04692,0.04692,-0.70308,0.14869,0.0209879,0.718937,-0.0820292,-0.0149425,-0.0438341,0.0259544,-0.0135332,0.0429184,0.0282185,-0.019578,-0.0086728,0.04692,0.123324,0.203211,0.107899,0.543472,0.623107,0.0850164,-2.89759,-0.744289,0.126445,0.155432,0.168147,1.20615,-0.683961,0.0216881,1.73527,0.0259544,-0.0135332,0.0429184,0.0282185,-0.019578,-0.0086728,0,0,0,0,0,0,0,0,0,-0.000473134,0.000380671,0.000482379,0.00379023,-0.000282759,0.000461283,0.000407599,0.00244405,0.000309281,-0.00251088,-0.000958363,-0.000300643
1767,0.00051179,0.016386,-0.00771504,-0.00395249,0.00608526,0.00608526,0.00608526,0.00608526,0.00608526,0.00608526,0.00608526,0.00608526,0.00608526,-0.756085,0.817502,0.887631,1.42403,0.016386,-0.00771504,-0.00395249,0.016013,-0.0094963,-0.00945348,0.0062592,0.00786842,0.0090229,0.00608526,0.000396922,-0.015724,-4.63054e-05,0.00298515,0.000515142,0.00038448,0.00216252,-0.00117712,-0.000694083,0.00124342,-0.00042433,0.00010946,0.00348647,-0.000900883,0.00168052,0.016013,-0.0094963,-0.00945348,0.0062592,0.00786842,0.0090229,0,0,0,0,0,0,0,0,0,-0.00056728,4.73222e-05,0.000262755,-0.000435138,-0.000368292,-0.000358181,-6.90179e-06,6.63824e-05,0.000350185,0.000344448,8.05851e-06,5.88274e-06
1768,0.00051179,0.0217552,-0.0143251,0.0388803,0.0227668,0.0227668,0.0227668,0.0227668,0.0227668,0.0227668,0.0227668,0.0227668,0.0227668,-0.727233,-0.832956,-0.0596553,1.10736,0.0217552,-0.0143251,0.0388803,0.125404,0.0754626,-0.0559638,-0.100685,0.00738817,-0.0158769,0.0227668,-2.60832,-24.9051,-0.362077,-2.05409,1.6564,0.743477,-3.58273,23.227,-0.205331,-1.97143,0.095874,0.0176899,4.03985,-0.125662,3.52616,0.125404,0.0754626,-0.0559638,-0.100685,0.00738817,-0.0158769,0,0,0,0,0,0,0,0,0,-0.00153496,-0.00903328,-0.000553694,0.0122876,-0.000675613,-0.00231245,0.00185123,0.0041534,0.000427321,-0.00541248,-0.00312078,0.00267362
1769,0.00051179,0.00376932,0.0023015,-0.00919628,0.0245469,0.0245469,0.0245469,0.0245469,0.0245469,0.0245469,0.0245469,0.0245469,0.0245469,-0.774547,-0.661876,-0.958855,1.39907,0.00376932,0.0023015,-0.00919628,-0.00298916,0.00604267,-0.00135751,-0.00578474,-0.00565996,0.00241852,0.0245469,0.000742629,-0.0100526,-0.000196181,0.00345206,0.000478101,0.000493787,-0.00472465,0.00580519,4.70858e-05,-0.000174856,0.000269921,7.14638e-05,-0.00557871,-0.000273611,0.0138495,-0.00298916,0.00604267,-0.00135751,-0.00578474,-0.00565996,0.00241852,0,0,0,0,0,0,0,0,0,-0.000387713,-4.49501e-06,0.000262224,-0.000432667,-0.000315929,-0.000203759,-2.19507e-05,-0.000120358,0.000371858,0.00042403,6.64575e-05,1.74622e-05
1770,0.00051179,0.00196106,-0.00204575,-0.010007,0.00516829,0.00516829,0.00516829,0.00516829,0.00516829,0.00516829,0.00516829,0.00516829,0.00516829,-0.893991,0.884836,-0.994832,1.6037,0.00196106,-0.00204575,-0.010007,0.000124767,0.00083942,-0.0010332,2.28188e-05,-0.00353292,0.00772124,0.00516829,0.00261487,-0.0215714,-0.000333898,0.00122618,0.00140738,-2.40728e-05,0.00386572,0.0182029,1.05929e-05,0.0024586,0.000117736,2.30291e-05,-0.00163903,-0.0013748,0.00611824,0.000124767,0.00083942,-0.0010332,2.28188e-05,-0.00353292,0.00772124,0,0,0,0,0,0,0,0,0,-0.000412337,3.17569e-06,-0.000247305,-0.000573171,-0.000326658,0.00025236,-1.03554e-05,0.000107109,0.000267506,0.000562598,-0.000141261,2.12097e-05
1771,0.00051179,-0.00520593,-0.0131058,0.00147124,0.00718886,0.00718886,0.00718886,0.00718886,0.00718886,0.00718886,0.00718886,0.00718886,0.00718886,-0.757189,-0.118288,0.329761,0.834308,-0.00520593,-0.0131058,0.00147124,0.00440238,0.012426,-0.0158705,-0.00424466,0.0125026,-0.0235008,0.00718886,0.0004033,0.0111165,0.000166185,0.0113716,0.00373339,-0.001619,0.10126,-0.00964391,0.000900937,0.039152,0.0014863,-0.0173111,-0.0374178,0.0138771,-0.0854198,0.00440238,0.012426,-0.0158705,-0.00424466,0.0125026,-0.0235008,0,0,0,0,0,0,0,0,0,-0.000553071,3.34457e-05,-0.000103916,-0.000405377,-0.000344599,0.000229838,-7.30127e-06,0.000138857,0.000340208,0.000230483,1.03221e-06,-3.87009e-05
1772,0.00051179,0.00316954,-0.0596369,0.10378,0.00256522,0.00256522,0.00256522,0.00256522,0.00256522,0.00256522,0.00256522,0.00256522,0.00256522,-0.752565,0.765824,-0.0148586,1.07381,0.00316954,-0.0596369,0.10378,-0.00875282,-0.0068794,-0.0886978,-0.0300231,-0.00843661,-0.0613719,0.00256522,-0.559727,-4.68617,0.0227327,0.107228,0.432657,1.13318,1.59197,4.25034,-0.0544433,0.412387,-0.130097,-0.902629,-0.459978,0.0101791,-0.793125,-0.00875282,-0.0068794,-0.0886978,-0.0300231,-0.00843661,-0.0613719,0,0,0,0,0,0,0,0,0,-0.000810154,-0.00202993,5.9288e-05,0.0146111,-0.000265146,9.92453e-05,0.000390135,-0.00286698,0.000431806,-0.00416623,0.00148165,0.000556504
1773,0.00051179,0.00147235,-0.0080343,0.00751617,0.0235907,0.0235907,0.0235907,0.0235907,0.0235907,0.0235907,0.0235907,0.0235907,0.0235907,-0.976409,0.866604,-0.825296,1.5445,0.00147235,-0.0080343,0.00751617,0.00241701,-0.0017159,0.00444356,-0.00373739,-0.0118662,-0.00180952,0.0235907,0.00178756,-0.00623599,-0.00104704,0.00560354,0.00270704,0.00176779,-0.00894167,0.0020566,-0.000825631,0.0012992,0.000256357,-0.000113051,0.00113156,-0.00175956,0.00153856,0.00241701,-0.0017159,0.00444356,-0.00373739,-0.0118662,-0.00180952,0,0,0,0,0,0,0,0,0,-0.000500076,2.55546e-05,-0.000334172,-0.000536855,-0.00033378,0.000306542,-1.82833e-05,6.99705e-05,0.000222653,0.000598969,-0.000186069,-1.33136e-05
1774,0.00051179,-0.00558411,-0.00270792,0.00559457,0.086099,0.086099,0.086099,0.086099,0.086099,0.086099,0.086099,0.086099,0.086099,-0.913901,0.444804,0.601097,1.18084,-0.00558411,-0.00270792,0.00559457,-0.000849234,0.00124045,-0.000181213,0.00287599,-0.00255012,0.00620382,0.086099,0.00285019,-0.0383497,-0.000934236,0.0172447,-0.00126152,-0.00380679,0.0467044,0.0451953,0.00234143,-0.00771232,-0.000697915,0.000137883,-0.00682449,0.00571147,-0.0524368,-0.000849234,0.00124045,-0.000181213,0.00287599,-0.00255012,0.00620382,0,0,0,0,0,0,0,0,0,-0.000570066,-1.20725e-05,0.000264566,-0.000278551,-0.000331307,-0.000261504,4.00978e-06,2.6383e-06,0.000295326,0.000238671,-3.51186e-05,3.74992e-05
1775,0.00051179,-0.00878048,-0.0208245,-0.0251474,0.123371,0.123371,0.123371,0.123371,0.123371,0.123371,0.123371,0.123371,0.123371,-0.876629,-0.629743,-0.134115,1.08768,-0.00878048,-0.0208245,-0.0251474,0.0106733,-0.00413645,0.0140579,0.0123557,-0.0018983,0.0121183,0.123371,-0.798932,-5.41959,-0.0072393,0.283765,0.876693,-0.119784,-2.5652,4.55168,-0.0872116,-0.321184,0.0126446,0.0871523,0.0582437,0.101567,2.50319,0.0106733,-0.00413645,0.0140579,0.0123557,-0.0018983,0.0121183,0,0,0,0,0,0,0,0,0,-0.000913255,-0.00307657,0.000290977,-0.000230631,-0.000379616,-0.000404734,0.000490446,0.000113596,0.00035774,-0.000826631,-6.13348e-06,0.00143315
1776,0.00051179,0.00343156,-0.00075131,-0.00710055,0.0712385,0.0712385,0.0712385,0.0712385,0.0712385,0.0712385,0.0712385,0.0712385,0.0712385,-0.821239,-0.580609,-0.834504,1.30688,0.00343156,-0.00075131,-0.00710055,-0.00729588,0.00150125,0.00181186,-0.000573782,-0.00371939,-0.000944844,0.0712385,0.000372425,0.00571018,-0.000668548,0.00354508,-5.71985e-05,0.000466645,-0.000581372,-0.00908454,-0.000305073,0.00109175,-0.000360426,-0.00037845,-0.00388552,0.000330832,0.00806037,-0.00729588,0.00150125,0.00181186,-0.000573782,-0.00371939,-0.000944844,0,0,0,0,0,0,0,0,0,-0.00041651,-2.49061e-05,0.00027894,-0.000395564,-0.000318164,-0.000270613,5.31686e-06,-9.88836e-05,0.000359014,0.000418349,5.80854e-05,6.64108e-06
1777,0.00051179,-0.000701759,0.00458387,-0.00298976,0.0759004,0.0759004,0.0759004,0.0759004,0.0759004,0.0759004,0.0759004,0.0759004,0.0759004,-0.9241,-0.252395,-0.601305,1.13103,-0.000701759,0.00458387,-0.00298976,-0.0034838,0.00252484,0.000285327,-0.00732316,0.000840077,-0.00114692,0.0759004,-0.00173448,0.036535,-0.00258332,0.0139587,-0.000995131,-0.00464191,0.0302683,-0.0348381,0.0056649,-0.000856993,-0.00438029,-0.00288245,-0.0176856,-0.00255074,-0.0243961,-0.0034838,0.00252484,0.000285327,-0.00732316,0.000840077,-0.00114692,0,0,0,0,0,0,0,0,0,-0.000418276,-1.38904e-05,0.000145678,-0.000322042,-0.000309372,-0.000146263,3.9097e-06,-4.56002e-05,0.000333816,0.000278476,1.01981e-05,-6.28728e-06
1778,0.00051179,-0.000346184,-0.018007,-0.00323468,0.0843642,0.0843642,0.0843642,0.0843642,0.0843642,0.0843642,0.0843642,0.0843642,0.0843642,-0.915636,-0.427819,0.126407,1.01853,-0.000346184,-0.018007,-0.00323468,0.0085611,0.000610321,0.00533562,0.00298542,-0.00626128,-0.00134796,0.0843642,0.503855,2.92866,-0.0497191,-0.85179,-0.290446,-0.0189781,-0.709844,-2.63786,0.10047,0.0934886,0.000341241,-0.0396159,0.776309,-0.0885378,0.752694,0.0085611,0.000610321,0.00533562,0.00298542,-0.00626128,-0.00134796,0,0,0,0,0,0,0,0,0,-0.000393845,0.00195517,-0.000455926,0.000342942,-0.000415647,-3.51623e-05,-8.96285e-05,3.48678e-06,0.000379279,-0.000479367,-6.26871e-05,-0.00105634
1779,0.00051179,-0.0378904,-0.0413797,0.00377572,0.120181,0.120181,0.120181,0.120181,0.120181,0.120181,0.120181,0.120181,0.120181,-0.879819,0.845899,-0.0657581,1.22227,-0.0378904,-0.0413797,0.00377572,0.00352594,-0.00945976,-0.005715,-0.0175646,-0.0216062,-0.00847316,0.120181,-0.546543,-5.2407,0.0978875,0.779478,0.0519795,0.428899,1.68265,5.22661,0.000452144,0.125005,-0.0654126,0.0676139,-0.863103,0.211367,-1.75404,0.00352594,-0.00945976,-0.005715,-0.0175646,-0.0216062,-0.00847316,0,0,0,0,0,0,0,0,0,-0.000840157,-0.00230289,-6.91051e-06,0.00299349,-0.00020274,0.000891187,0.000326632,-0.0011977,0.000459433,0.00123835,0.00032751,0.00142667
1780,0.00051179,-0.377191,-0.29152,-0.0814498,1.82174e-05,1.82174e-05,1.82174e-05,1.82174e-05,1.82174e-05,1.82174e-05,1.82174e-05,1.82174e-05,1.82174e-05,-0.750018,0.973535,-0.415652,1.29733,-0.377191,-0.29152,-0.0814498,-0.00949283,-0.00999366,-0.0506433,-0.0011657,-0.0137811,0.0379944,1.82174e-05,0.00197633,0.381357,0.00181127,0.246064,0.0151,0.000723671,0.0730601,-0.0192662,0.00644015,0.0404063,0.00143195,-0.00810746,0.00504956,-0.00177924,0.0164972,-0.00949283,-0.00999366,-0.0506433,-0.0011657,-0.0137811,0.0379944,0,0,0,0,0,0,0,0,0,-0.000824727,-7.67823e-05,-0.000506959,-0.000865513,-0.000164086,0.000425135,-1.28275e-05,0.000305072,0.000363961,0.000366317,-0.000428564,0.000141876
1781,0.00051179,-0.00703096,0.00106666,0.000808448,0.0502995,0.0502995,0.0502995,0.0502995,0.0502995,0.0502995,0.0502995,0.0502995,0.0502995,-0.8003,0.506063,0.377503,1.01936,-0.00703096,0.00106666,0.000808448,-0.000113925,-0.00766309,0.00773007,-0.0062684,-0.00690093,0.0120925,0.0502995,0.00145335,-0.0935864,-0.000555865,-0.00779851,-0.00853092,-0.00959253,0.241403,0.109148,-0.0249382,-0.0345976,0.000125143,0.0478608,0.0413294,0.0244628,-0.290072,-0.000113925,-0.00766309,0.00773007,-0.0062684,-0.00690093,0.0120925,0,0,0,0,0,0,0,0,0,-0.000472538,-1.01981e-06,0.000379993,-0.000504145,-0.000369543,-0.000462183,-0.00016375,-5.53763e-05,0.000305407,0.00048552,-1.23816e-05,0.000175059
1782,0.00051179,0.00685529,0.0123235,0.00781041,0.0798214,0.0798214,0.0798214,0.0798214,0.0798214,0.0798214,0.0798214,0.0798214,0.0798214,-0.829821,0.411945,-0.426641,1.01996,0.00685529,0.0123235,0.00781041,-0.00759009,0.00382166,0.00115556,0.00200799,-0.00354256,-0.00243897,0.0798214,-0.00364326,0.102298,0.000804134,-0.0145108,0.00370252,-0.00815205,0.173767,-0.112856,0.0307303,0.00737728,-0.00304761,0.0264213,-0.00518991,-0.0169158,-0.207999,-0.00759009,0.00382166,0.00115556,0.00200799,-0.00354256,-0.00243897,0,0,0,0,0,0,0,0,0,-0.000523753,-5.86477e-05,-0.000294261,-0.00047363,-0.000272507,0.000340519,0.00016121,-1.82032e-06,0.00033316,0.000403666,-6.40814e-05,-9.92549e-05
1783,0.00051179,-0.290888,-0.152689,-0.186038,0.00883232,0.00883232,0.00883232,0.00883232,0.00883232,0.00883232,0.00883232,0.00883232,0.00883232,-0.758832,-0.714619,-0.129449,1.05036,-0.290888,-0.152689,-0.186038,-0.127676,0.0379792,-0.0617721,-0.200187,0.0753282,-0.0129893,0.00883232,-1.53786,1.65659,-0.140541,-1.05557,1.30517,-0.849964,-10.8253,-2.67087,-0.138586,-0.936961,-0.113318,0.927492,2.14522,-0.639015,10.0838,-0.127676,0.0379792,-0.0617721,-0.200187,0.0753282,-0.0129893,0,0,0,0,0,0,0,0,0,-0.00143959,-0.00526271,-0.000149909,-0.00687471,-0.000526393,-0.000875709,0.00137111,0.000325784,0.000219457,-0.00224265,-0.000705684,-0.00019504
1784,0.00051179,-0.00838067,-0.00079471,0.00034685,0.0278659,0.0278659,0.0278659,0.0278659,0.0278659,0.0278659,0.0278659,0.0278659,0.0278659,-0.929948,-0.0378297,-0.972134,1.34584,-0.00838067,-0.00079471,0.00034685,-0.00821259,-0.00184867,0.00276086,-0.0103874,-0.0013734,0.00128964,0.0278659,0.00211151,-0.00767365,-0.000348203,0.00239432,0.000138112,0.000656694,-0.00080888,0.0159162,-0.0017754,0.000702717,0.000105647,0.000178518,-0.00230232,-0.00156223,0.000283512,-0.00821259,-0.00184867,0.00276086,-0.0103874,-0.0013734,0.00128964,0,0,0,0,0,0,0,0,0,-0.000284456,-9.11711e-06,1.82529e-05,-0.000324196,-0.000302667,-4.02216e-05,-3.94259e-05,5.20653e-06,0.000328861,0.000358371,-1.78841e-05,2.00253e-05
1785,0.00051179,0.0150813,-0.0143329,-0.0147562,0.0693742,0.0693742,0.0693742,0.0693742,0.0693742,0.0693742,0.0693742,0.0693742,0.0693742,-0.930626,0.0834289,-0.191034,0.953687,0.0150813,-0.0143329,-0.0147562,-0.00199732,0.00405171,0.0023784,-0.00404509,0.0114923,-0.0021632,0.0693742,-0.109928,-0.151663,-0.0326113,0.0294027,-0.2642,-0.0289128,-0.307611,0.400782,-0.0416831,-0.00889656,-0.0145337,-0.0590196,-0.00617322,0.0213436,0.381387,-0.00199732,0.00405171,0.0023784,-0.00404509,0.0114923,-0.0021632,0,0,0,0,0,0,0,0,0,-0.00057023,-0.000399852,-0.000130652,-0.000327437,-0.000331813,-0.000154944,-6.88636e-05,-1.91609e-06,0.000336915,6.20933e-05,-2.84979e-05,0.000255679
1786,0.00051179,-0.000913201,-0.00179954,-0.00879453,0.0978371,0.0978371,0.0978371,0.0978371,0.0978371,0.0978371,0.0978371,0.0978371,0.0978371,-0.847837,0.845646,-0.390751,1.25962,-0.000913201,-0.00179954,-0.00879453,-0.00852427,-0.00747048,0.00531634,-0.00115611,0.0171401,0.00396701,0.0978371,-0.00320892,0.0365899,0.00203527,-0.0440586,-0.0119905,-0.00358884,0.0329145,-0.0236862,0.0136118,-0.113381,0.0140187,-0.0233299,0.159239,-0.00460458,-0.000790071,-0.00852427,-0.00747048,0.00531634,-0.00115611,0.0171401,0.00396701,0,0,0,0,0,0,0,0,0,-0.000755124,-5.87639e-05,-0.00065139,-0.000717231,-0.000209207,0.000597038,6.21804e-05,0.000371748,0.000300981,0.000734506,-6.01593e-05,-3.28581e-06
1787,0.00051179,-0.000111714,-0.00212991,0.00139314,0.0564006,0.0564006,0.0564006,0.0564006,0.0564006,0.0564006,0.0564006,0.0564006,0.0564006,-0.943599,-0.585353,0.89559,1.42657,-0.000111714,-0.00212991,0.00139314,-0.00513906,4.10601e-05,-0.00363995,0.00626866,0.0036222,0.00378028,0.0564006,0.00112279,-0.00277989,0.000162579,-0.0023217,0.000233672,0.000439592,0.0012113,0.00265793,0.000140874,0.000780531,-0.000274255,0.000876897,0.00367107,-0.0016791,-0.00348133,-0.00513906,4.10601e-05,-0.00363995,0.00626866,0.0036222,0.00378028,0,0,0,0,0,0,0,0,0,-0.000606604,-2.52673e-05,-0.000259117,-0.000336211,-0.000354165,0.000261154,2.68618e-05,9.32917e-06,0.000311248,0.000304207,2.41502e-05,5.32001e-06
1788,0.00051179,-0.00471946,0.00313664,-0.00159886,0.0230717,0.0230717,0.0230717,0.0230717,0.0230717,0.0230717,0.0230717,0.0230717,0.0230717,-0.976928,-0.677553,-0.791916,1.42849,-0.00471946,0.00313664,-0.00159886,-0.00140467,0.000240833,0.00121531,-0.00839569,0.00938801,0.00365616,0.0230717,-0.000576243,0.0144608,-0.00171822,0.00852814,-0.00182686,0.000932399,-0.000105638,-0.00791452,-0.00175925,-0.00143386,-0.000539328,0.00133133,-0.0102309,-0.00227781,0.000373173,-0.00140467,0.000240833,0.00121531,-0.00839569,0.00938801,0.00365616,0,0,0,0,0,0,0,0,0,-0.000461504,2.50793e-06,0.000327908,-0.000420644,-0.00027501,-0.000342682,-3.83622e-05,-5.8478e-05,0.000283241,0.000442121,0.000146965,1.93043e-05
1789,0.00051179,-0.00258204,0.000650132,0.00362253,0.111089,0.111089,0.111089,0.111089,0.111089,0.111089,0.111089,0.111089,0.111089,-0.861089,-0.539804,0.462552,1.11661,-0.00258204,0.000650132,0.00362253,-0.00383522,0.00141203,0.000949658,-0.00821906,9.0595e-05,0.00907424,0.111089,0.00440647,-0.0884699,0.000403173,-0.000678139,-0.00923857,-0.0091716,0.110681,0.10029,-0.00323872,0.0204132,-3.24408e-05,0.0221911,-0.0203852,0.0130324,-0.136495,-0.00383522,0.00141203,0.000949658,-0.00821906,9.0595e-05,0.00907424,0,0,0,0,0,0,0,0,0,-0.000491522,-1.009e-05,-0.000404038,-0.000307447,-0.000331515,0.00042219,-7.02352e-05,1.37619e-05,0.00032308,0.000225227,-1.31803e-05,9.75868e-05
1790,0.00051179,0.0051066,0.0117222,-0.0287647,0.0147685,0.0147685,0.0147685,0.0147685,0.0147685,0.0147685,0.0147685,0.0147685,0.0147685,-0.985231,0.236503,-0.624434,1.19018,0.0051066,0.0117222,-0.0287647,-0.00551188,0.000241731,0.00349357,-0.0103868,-0.000647638,0.00377669,0.0147685,-0.00327705,0.0369405,-0.00357597,0.00427773,0.000537985,-0.00558317,0.0358581,-0.0425851,0.00388898,0.0086414,-0.00441878,0.004407,-0.0246413,-0.00313011,-0.0115004,-0.00551188,0.000241731,0.00349357,-0.0103868,-0.000647638,0.00377669,0,0,0,0,0,0,0,0,0,-0.000409648,-2.70521e-05,-0.000145837,-0.000312756,-0.000310028,0.000112495,-1.55968e-05,-6.41719e-06,0.00030522,0.00029186,-4.4247e-05,2.01255e-05
1791,0.00051179,-0.000508115,-0.00241263,0.00132102,0.0646747,0.0646747,0.0646747,0.0646747,0.0646747,0.0646747,0.0646747,0.0646747,0.0646747,-0.935325,-0.151225,0.903023,1.30887,-0.000508115,-0.00241263,0.00132102,-0.00690453,-0.00116389,-0.0013739,0.00659255,-0.000765629,0.0027558,0.0646747,0.00141819,-0.00437127,4.72143e-05,-0.0034244,0.000249334,1.31242e-05,0.00707385,0.00463005,0.000564484,0.00112577,-0.000133649,-0.000146232,0.00471127,-0.000972159,-0.00824863,-0.00690453,-0.00116389,-0.0013739,0.00659255,-0.000765629,0.0027558,0,0,0,0,0,0,0,0,0,-0.000687107,-3.14175e-05,-8.90282e-05,-0.000248211,-0.000339562,7.78615e-05,3.17994e-05,1.61796e-05,0.000311829,0.000234603,-2.51723e-05,4.93245e-06
1792,0.00051179,0.00101967,-0.00644948,0.00973956,0.011064,0.011064,0.011064,0.011064,0.011064,0.011064,0.011064,0.011064,0.011064,-0.988936,0.72213,-0.934258,1.54023,0.00101967,-0.00644948,0.00973956,-0.000703887,3.6953e-05,0.00454945,-0.00735348,-0.00969508,0.00180056,0.011064,0.00228281,-0.0142339,-0.000837021,0.00243885,0.000500175,0.00116998,-0.00667101,0.012714,-0.000630977,0.00350648,0.000277217,-0.000348662,0.000504146,-0.00201287,-0.0027199,-0.000703887,3.6953e-05,0.00454945,-0.00735348,-0.00969508,0.00180056,0,0,0,0,0,0,0,0,0,-0.000403009,1.55306e-05,-0.000257494,-0.000473951,-0.000341708,0.000249493,-3.22863e-05,8.34767e-05,0.000242792,0.000531145,-0.000177655,6.57444e-06
1793,0.00051179,-0.000965724,-0.00893494,0.00258428,0.0587089,0.0587089,0.0587089,0.0587089,0.0587089,0.0587089,0.0587089,0.0587089,0.0587089,-0.941291,-0.803801,0.658068,1.40185,-0.000965724,-0.00893494,0.00258428,0.0012043,-0.000428777,-0.000622127,0.0042168,0.011776,0.00487661,0.0587089,0.00239404,-0.0186504,0.00083036,-0.00731126,0.00221432,-0.00224792,0.0279849,0.0174018,0.00157414,0.0103883,-0.00154581,-0.00646277,0.00585793,0.00108101,-0.0241064,0.0012043,-0.000428777,-0.000622127,0.0042168,0.011776,0.00487661,0,0,0,0,0,0,0,0,0,-0.000446208,2.83737e-07,-0.00043783,-0.000414038,-0.000364209,0.000441846,1.12468e-05,3.02084e-05,0.000300474,0.000385337,7.20938e-05,1.20801e-05
1794,0.00051179,0.00636555,0.00406793,0.00701094,0.0133766,0.0133766,0.0133766,0.0133766,0.0133766,0.0133766,0.0133766,0.0133766,0.0133766,-0.986623,0.138408,0.758472,1.25214,0.00636555,0.00406793,0.00701094,0.0014084,1.84826e-05,3.02847e-05,0.0127364,-0.00136476,0.00137165,0.0133766,0.00153686,-0.0235458,0.000621088,0.000724125,0.00113916,-0.00281264,0.0348802,0.0160411,0.00343339,-0.00123082,-0.000855657,-0.00205896,-0.00356123,0.00326192,-0.0398322,0.0014084,1.84826e-05,3.02847e-05,0.0127364,-0.00136476,0.00137165,0,0,0,0,0,0,0,0,0,-0.000655495,-1.2676e-05,6.42758e-05,-0.00023607,-0.000330115,-5.78801e-05,5.34469e-05,5.24571e-06,0.000292145,0.000208246,-2.74499e-05,-4.23447e-06
1795,0.00051179,0.0528851,0.130403,-0.00642252,0.00397483,0.00397483,0.00397483,0.00397483,0.00397483,0.00397483,0.00397483,0.00397483,0.00397483,-0.746025,0.640802,0.0667399,0.985715,0.0528851,0.130403,-0.00642252,-0.172707,-0.0047993,0.153819,0.00117663,0.00267089,-0.0281042,0.00397483,2.50301,25.9967,0.0860905,1.88805,-2.24348,0.316731,-4.26669,-23.8061,0.474612,-0.854953,-0.00255935,-0.442783,-1.16351,0.215072,4.7159,-0.172707,-0.0047993,0.153819,0.00117663,0.00267089,-0.0281042,0,0,0,0,0,0,0,0,0,0.000349119,0.008198,0.000470108,0.00984781,-0.000324661,0.000342804,-0.00107459,-0.000410544,0.000192568,-0.00514231,0.000411659,-0.0025187
1796,0.00051179,-0.00222866,-0.00369023,0.000447069,0.0634147,0.0634147,0.0634147,0.0634147,0.0634147,0.0634147,0.0634147,0.0634147,0.0634147,-0.936585,-0.55718,-0.678103,1.28354,-0.00222866,-0.00369023,0.000447069,-0.00232889,0.00319887,-0.00035461,-0.00716766,0.00366036,0.00334615,0.0634147,-0.00135551,0.0284678,-0.00228547,0.0136914,-0.00172178,-0.00185909,0.00881272,-0.0245173,0.00166689,0.00776089,-0.00183054,-0.00302367,-0.0177621,-0.00160144,-0.00623612,-0.00232889,0.00319887,-0.00035461,-0.00716766,0.00366036,0.00334615,0,0,0,0,0,0,0,0,0,-0.000467144,-9.83688e-06,0.000326974,-0.000371794,-0.00029918,-0.00031784,-1.89187e-05,-7.09735e-05,0.000316001,0.000349657,8.92717e-05,1.73087e-05
1797,0.00051179,-0.00580525,-0.00487763,-0.0138905,0.0311267,0.0311267,0.0311267,0.0311267,0.0311267,0.0311267,0.0311267,0.0311267,0.0311267,-0.968873,0.855505,-0.668014,1.45494,-0.00580525,-0.00487763,-0.0138905,0.00144042,-0.000508346,0.00159299,-0.00148534,-0.0141132,-0.00076643,0.0311267,-0.000186965,0.0230853,-0.00216874,0.0137917,0.00560358,0.000236899,0.00644629,-0.0228836,-6.68187e-05,-0.0138438,0.000583992,-8.65748e-05,0.00492975,-0.000823852,0.0075308,0.00144042,-0.000508346,0.00159299,-0.00148534,-0.0141132,-0.00076643,0,0,0,0,0,0,0,0,0,-0.000583149,8.44688e-06,-0.000416715,-0.000578147,-0.000319922,0.000389944,-5.5812e-06,7.69671e-05,0.000227787,0.000596446,-0.00021226,-5.77181e-06
1798,0.00051179,0.00286159,-0.00361639,-0.00824952,0.0661369,0.0661369,0.0661369,0.0661369,0.0661369,0.0661369,0.0661369,0.0661369,0.0661369,-0.887187,0.868256,-0.933863,1.55341,0.00286159,-0.00361639,-0.00824952,-0.00174404,-0.000270961,0.00129473,-0.00212869,-0.00326285,0.00118793,0.0661369,0.00188597,-0.0126119,-0.000541888,0.0015962,0.00160636,0.000788413,9.76316e-05,0.00814389,-0.000234248,0.00199469,7.78353e-05,0.000501108,2.5499e-05,-0.00093076,0.00765078,-0.00174404,-0.000270961,0.00129473,-0.00212869,-0.00326285,0.00118793,0,0,0,0,0,0,0,0,0,-0.000441603,2.97559e-06,-0.000273081,-0.000535423,-0.000318104,0.000264952,-9.54871e-06,0.0001075,0.000274301,0.000556255,-0.00013935,3.55182e-06
1799,0.00051179,0.00110585,-0.00292603,0.00481327,0.0800183,0.0800183,0.0800183,0.0800183,0.0800183,0.0800183,0.0800183,0.0800183,0.0800183,-0.874733,-0.0382417,0.919982,1.27003,0.00110585,-0.00292603,0.00481327,-0.000111166,-0.00134675,-0.0010989,0.00188333,-0.000252217,0.0056269,0.0800183,0.00118931,-0.00343491,-0.000142626,-0.00149897,0.000270844,0.000310522,0.00308804,0.00205822,-0.000272455,0.000148995,-0.000160531,-0.00020775,0.004276,-0.000837702,-0.00769356,-0.000111166,-0.00134675,-0.0010989,0.00188333,-0.000252217,0.0056269,0,0,0,0,0,0,0,0,0,-0.000699155,-3.238e-06,-3.38653e-05,-0.000249948,-0.000334376,1.89716e-05,-5.74333e-07,2.13813e-05,0.00032346,0.000242064,-2.55088e-05,1.53173e-05
1800,0.00051179,-0.000356704,-0.00540054,0.0132964,0.0839629,0.0839629,0.0839629,0.0839629,0.0839629,0.0839629,0.0839629,0.0839629,0.0839629,-0.833963,0.273878,-0.379514,0.956313,-0.000356704,-0.00540054,0.0132964,-0.00148216,0.00539481,-0.00220125,-0.00465374,-0.0121987,0.000900768,0.0839629,-0.00675194,0.184836,0.000560708,-0.00387905,0.00595511,-0.0146562,0.259956,-0.190434,0.0283277,0.0442617,-0.00692646,0.011014,-0.0349821,-0.0252513,-0.284267,-0.00148216,0.00539481,-0.00220125,-0.00465374,-0.0121987,0.000900768,0,0,0,0,0,0,0,0,0,-0.00051409,-3.0889e-05,-0.000195506,-0.000540024,-0.000296945,0.000255061,0.000128652,-0.000110678,0.000336453,0.000371449,-8.05736e-05,-0.000111471
1801,0.00051179,-0.00227485,-0.00148386,-0.0127373,0.101959,0.101959,0.101959,0.101959,0.101959,0.101959,0.101959,0.101959,0.101959,-0.851959,0.00391296,-0.5231,0.999742,-0.00227485,-0.00148386,-0.0127373,-0.0023944,-0.000338885,-0.000278097,-0.00373899,-0.00179305,0.000369527,0.101959,-0.000103936,0.0232271,-0.00106185,0.00767193,-0.000134194,-0.00352561,0.057376,-0.0208181,0.0159648,0.00635406,-0.00519872,0.00112285,-0.0125421,-0.00399331,-0.0457616,-0.0023944,-0.000338885,-0.000278097,-0.00373899,-0.00179305,0.000369527,0,0,0,0,0,0,0,0,0,-0.000426926,-1.95344e-05,-2.22754e-06,-0.000341371,-0.00031116,-1.17798e-05,5.40862e-05,-4.86411e-05,0.000351153,0.000303334,-2.12765e-05,-2.51616e-05
1802,0.00051179,0.00093828,-0.00153937,0.00298085,0.0607097,0.0607097,0.0607097,0.0607097,0.0607097,0.0607097,0.0607097,0.0607097,0.0607097,-0.9052,0.15953,0.93929,1.31419,0.00093828,-0.00153937,0.00298085,-0.00102203,-0.00124435,-0.0023052,0.00429905,-0.000500028,0.0047142,0.0607097,0.00120433,-0.00176382,-0.000130497,-0.00215466,7.74493e-05,0.000294518,0.00331115,0.000748094,-5.06956e-05,-0.000772865,-0.000110189,-0.000454509,0.00446689,-0.00114969,-0.00583749,-0.00102203,-0.00124435,-0.0023052,0.00429905,-0.000500028,0.0047142,0,0,0,0,0,0,0,0,0,-0.00070224,-8.31373e-06,5.13566e-05,-0.000278824,-0.00033241,-6.51051e-05,1.20166e-05,1.7663e-05,0.000311412,0.000258717,-2.37651e-05,8.59737e-06
1803,0.00051179,0.0100448,0.00992416,-0.0080201,0.0180529,0.0180529,0.0180529,0.0180529,0.0180529,0.0180529,0.0180529,0.0180529,0.0180529,-0.768053,0.279889,-0.852,1.18074,0.0100448,0.00992416,-0.0080201,-0.0098377,-0.00301747,0.000372909,0.00460168,0.00167648,-0.00509424,0.0180529,0.00039722,-0.00560521,-0.000428371,0.0049015,0.000402073,0.00063562,-0.00150645,-0.00484164,0.00279851,-0.00798994,-0.00064404,0.00108379,-0.00683572,0.00119952,0.00844276,-0.0098377,-0.00301747,0.000372909,0.00460168,0.00167648,-0.00509424,0,0,0,0,0,0,0,0,0,-0.000345998,-4.03543e-05,-0.000133326,-0.000336259,-0.000289613,9.88677e-05,4.3849e-05,4.56471e-05,0.000376038,0.000346344,-3.53226e-05,-1.26255e-05
1804,0.00051179,0.0156435,0.0333717,-0.0018794,0.0159285,0.0159285,0.0159285,0.0159285,0.0159285,0.0159285,0.0159285,0.0159285,0.0159285,-0.765929,-0.978317,0.567182,1.36581,0.0156435,0.0333717,-0.0018794,-0.00340906,0.00760706,0.00732217,-0.00392683,-0.00713742,-0.00724068,0.0159285,0.00150903,-0.0242899,-0.000512354,-0.00672355,0.00187031,-0.00171649,-0.00092645,0.00677616,-0.00116338,-0.0178907,0.000988533,-0.0118759,-0.00875742,0.00148855,0.0146818,-0.00340906,0.00760706,0.00732217,-0.00392683,-0.00713742,-0.00724068,0,0,0,0,0,0,0,0,0,-0.000317954,5.20258e-06,-0.000458455,-0.000571915,-0.000274891,0.000529402,-1.07483e-05,-0.000147822,0.000373282,0.000627971,8.63329e-05,-1.40579e-05
1805,0.00051179,2.06521e-05,0.000741897,0.00200089,0.123879,0.123879,0.123879,0.123879,0.123879,0.123879,0.123879,0.123879,0.123879,-0.873879,-0.0264221,0.73079,1.13948,2.06521e-05,0.000741897,0.00200089,-0.00360329,-0.00164025,-3.68915e-05,0.00150929,-0.00101121,0.00387518,0.123879,0.000363603,-0.00644081,0.00023324,-0.00194331,0.000484422,-0.000481375,0.0132265,0.00593574,-0.00149213,0.000116413,-0.000854203,-0.000694834,0.001085,0.00109017,-0.0145326,-0.00360329,-0.00164025,-3.68915e-05,0.00150929,-0.00101121,0.00387518,0,0,0,0,0,0,0,0,0,-0.000655584,-1.82094e-05,-2.38783e-05,-0.000213802,-0.000337118,9.8082e-06,-1.92514e-06,8.72941e-06,0.000319608,0.000208619,-2.73835e-05,2.28158e-05
1806,0.00051179,-0.00268544,0.00106214,0.00104491,0.0974059,0.0974059,0.0974059,0.0974059,0.0974059,0.0974059,0.0974059,0.0974059,0.0974059,-0.847406,-0.562626,0.588637,1.17522,-0.00268544,0.00106214,0.00104491,-0.00178019,0.000970047,1.52756e-05,-0.00310423,-0.00232699,0.00797112,0.0974059,0.00127752,-0.0197566,0.000341184,-0.00113211,-0.00185647,-0.00162153,0.0309568,0.0242985,-0.00130288,-0.0027024,-0.00125951,0.0044235,0.00277237,0.00202451,-0.0364252,-0.00178019,0.000970047,1.52756e-05,-0.00310423,-0.00232699,0.00797112,0,0,0,0,0,0,0,0,0,-0.000520132,-8.38163e-06,-0.000369327,-0.000291665,-0.000325883,0.000382439,-2.79038e-05,-1.73635e-05,0.000335485,0.000275602,-1.85015e-05,4.41099e-05
1807,0.00051179,0.0105003,-0.00658494,0.0160054,0.00452993,0.00452993,0.00452993,0.00452993,0.00452993,0.00452993,0.00452993,0.00452993,0.00452993,-0.75453,0.183267,0.932041,1.2131,0.0105003,-0.00658494,0.0160054,0.01121,-0.00987868,0.00124022,-0.00671952,0.00201007,0.010769,0.00452993,0.00060828,-0.0100313,-0.000224881,0.00323421,-0.000468269,0.000353355,-0.004939,-7.89569e-07,-0.000695424,-0.00156832,-0.000113207,-0.000276422,0.00491905,-0.000883888,-0.0107899,0.01121,-0.00987868,0.00124022,-0.00671952,0.00201007,0.010769,0,0,0,0,0,0,0,0,0,-0.000697248,4.26049e-05,5.82879e-05,-0.000265951,-0.000344658,-0.000159324,-5.35615e-05,2.16612e-05,0.000352405,0.000281887,-2.69255e-06,3.29388e-05
1808,0.00051179,0.00393498,-0.00420843,0.015065,0.0375172,0.0375172,0.0375172,0.0375172,0.0375172,0.0375172,0.0375172,0.0375172,0.0375172,-0.962483,-0.719407,-0.174698,1.21426,0.00393498,-0.00420843,0.015065,0.0211639,0.00780091,0.0394557,-0.0146034,0.0159625,-0.000365406,0.0375172,-0.389185,-1.83133,-0.0684962,-0.0305862,0.321293,-0.0411866,-0.940911,1.5061,-0.0330441,-0.19707,-0.00152137,0.0315777,0.231864,0.0421604,0.894269,0.0211639,0.00780091,0.0394557,-0.0146034,0.0159625,-0.000365406,0,0,0,0,0,0,0,0,0,-0.000746086,-0.00140871,0.000392363,7.20439e-05,-0.000348652,-0.000999316,0.000193156,-0.000137746,0.00034406,-8.9353e-05,0.000282157,0.000640368
1809,0.00051179,-0.061954,0.0486437,-0.056507,0.0128986,0.0128986,0.0128986,0.0128986,0.0128986,0.0128986,0.0128986,0.0128986,0.0128986,-0.73181,-0.0122235,-0.122198,0.742043,-0.061954,0.0486437,-0.056507,0.013552,0.0331965,0.0815321,0.109439,0.00822628,0.00645633,0.0128986,-0.237506,1.894,-0.00195148,-0.282364,-1.03361,-0.162632,-0.295848,-0.798434,-0.427267,-0.117889,-0.00991954,-0.678654,0.351609,-0.159135,1.03101,0.013552,0.0331965,0.0815321,0.109439,0.00822628,0.00645633,0,0,0,0,0,0,0,0,0,-0.000685357,-0.000318469,7.71113e-05,-0.000959453,-0.00032776,0.000235339,-0.000787838,-2.70687e-05,0.000380613,0.000148453,1.01361e-05,3.79078e-05
1810,0.00051179,0.0171096,-0.0132221,-0.0183081,0.0231506,0.0231506,0.0231506,0.0231506,0.0231506,0.0231506,0.0231506,0.0231506,0.0231506,-0.976849,0.415425,-0.266658,1.0945,0.0171096,-0.0132221,-0.0183081,0.0131016,0.0123506,0.0167832,-0.00443418,0.025798,0.00744254,0.0231506,-0.209877,0.150952,-0.0293388,0.0929849,0.0630982,-0.107564,-0.35782,-0.23116,-0.0291119,0.0269386,-0.0223093,0.00775698,-0.106701,-0.0133072,0.368372,0.0131016,0.0123506,0.0167832,-0.00443418,0.025798,0.00744254,0,0,0,0,0,0,0,0,0,-0.000580229,-0.000711354,-0.000280147,-0.000508331,-0.000317479,0.000110266,0.000104792,5.9438e-05,0.00031814,-0.000399476,-2.45513e-05,0.000243199
1811,0.00051179,-0.0124674,0.056266,0.0783353,0.0531593,0.0531593,0.0531593,0.0531593,0.0531593,0.0531593,0.0531593,0.0531593,0.0531593,-0.803159,-0.755201,0.115356,1.10847,-0.0124674,0.056266,0.0783353,-0.0263004,-0.00677468,0.0335727,0.0421168,0.0041229,0.0118588,0.0531593,1.41083,12.8524,0.154454,0.995983,-1.00554,-0.217452,-8.33396,-11.8344,0.0996876,0.696307,-0.0265071,0.445049,-1.74856,-0.107575,7.81057,-0.0263004,-0.00677468,0.0335727,0.0421168,0.0041229,0.0118588,0,0,0,0,0,0,0,0,0,0.000115976,0.00527193,0.000232899,-0.000427445,-0.000207985,0.00124389,-0.000941689,0.000514079,0.000336535,-0.00141135,-0.00073792,-0.00212929
1812,0.00051179,-0.000366263,-0.00370274,0.00101623,0.0725459,0.0725459,0.0725459,0.0725459,0.0725459,0.0725459,0.0725459,0.0725459,0.0725459,-0.927454,-0.624697,-0.882601,1.42457,-0.000366263,-0.00370274,0.00101623,-0.0053204,0.00222413,0.0016975,-0.00887301,0.00200187,0.000478026,0.0725459,0.000232413,0.00308174,-0.000971578,0.00437382,2.96444e-05,0.000905529,-0.00303122,-0.00274513,-0.0017419,-0.000647175,8.97544e-05,-0.000641066,-2.3899e-05,-0.00157192,0.00265606,-0.0053204,0.00222413,0.0016975,-0.00887301,0.00200187,0.000478026,0,0,0,0,0,0,0,0,0,-0.000408299,-6.05903e-06,0.000280461,-0.00039948,-0.000285083,-0.000267936,-3.36937e-05,-8.33157e-05,0.000309743,0.000425511,0.000104232,1.39115e-05
1813,0.00051179,-0.00135326,0.00245317,-0.0149754,0.0437709,0.0437709,0.0437709,0.0437709,0.0437709,0.0437709,0.0437709,0.0437709,0.0437709,-0.956229,-0.0539178,-0.700967,1.18686,-0.00135326,0.00245317,-0.0149754,-0.00289453,0.00270797,0.00317721,-0.00753266,-0.000768381,-0.00078493,0.0437709,-0.00230853,0.0300564,-0.00295984,0.0152103,-0.000495399,-0.00221723,0.018524,-0.0282077,0.00171114,0.0018788,-0.00302335,0.000881764,-0.0195422,-0.00177984,-0.00443039,-0.00289453,0.00270797,0.00317721,-0.00753266,-0.000768381,-0.00078493,0,0,0,0,0,0,0,0,0,-0.000368901,-1.03353e-05,2.62804e-05,-0.000319174,-0.000304246,-2.87991e-05,-1.34276e-05,-1.96079e-05,0.000323132,0.000328773,-1.83094e-05,2.85619e-06
1814,0.00051179,-0.0359313,-0.0349945,-0.0129019,0.00761789,0.00761789,0.00761789,0.00761789,0.00761789,0.00761789,0.00761789,0.00761789,0.00761789,-0.757618,-0.678921,-0.499122,1.13316,-0.0359313,-0.0349945,-0.0129019,-0.0272397,0.0119999,-0.00882497,0.0172175,-0.01745,3.33406e-05,0.00761789,0.0011604,0.0419213,-0.00106376,0.0153703,0.00183392,0.000528164,-0.00495444,-0.00782386,0.00181408,0.0461978,-0.00631517,-0.00244909,-0.0265735,-0.00411387,0.0203054,-0.0272397,0.0119999,-0.00882497,0.0172175,-0.01745,3.33406e-05,0,0,0,0,0,0,0,0,0,-0.000593849,-0.000117556,0.000463676,-0.000512127,-0.0003986,-0.000354315,0.000107998,-0.000221902,0.000383236,0.000429158,-1.57495e-05,-7.56235e-06
1815,0.00051179,-0.00347337,-0.00184977,0.00115703,0.106637,0.106637,0.106637,0.106637,0.106637,0.106637,0.106637,0.106637,0.106637,-0.893363,-0.0280916,-0.295436,0.941365,-0.00347337,-0.00184977,0.00115703,-0.00615839,-0.00119011,-0.000955271,0.00203888,-2.25939e-05,-0.000686113,0.106637,-0.0261941,0.239752,0.00200868,-0.0126212,-0.030648,-0.0295063,-0.0161793,-0.20563,-0.0312702,0.0214475,-0.00395851,-0.0454337,-0.00697657,-0.0178821,0.060456,-0.00615839,-0.00119011,-0.000955271,0.00203888,-2.25939e-05,-0.000686113,0,0,0,0,0,0,0,0,0,-0.0005235,-6.92795e-05,1.54021e-05,-0.000508587,-0.000321919,-7.21632e-06,-5.36732e-05,-1.73405e-05,0.000332594,0.000203971,-2.24705e-05,-3.58144e-07
1816,0.00051179,0.0152591,0.0140397,0.0779896,0.00820266,0.00820266,0.00820266,0.00820266,0.00820266,0.00820266,0.00820266,0.00820266,0.00820266,-0.758203,-0.720583,0.340221,1.09994,0.0152591,0.0140397,0.0779896,0.0450389,-0.0018895,0.0301532,-0.0282701,-0.0349037,-0.0381375,0.00820266,-0.000206277,-0.0248809,0.00133158,-0.075716,0.00264037,-0.001017,0.176281,0.00698148,-0.0271301,-0.0524984,-0.0074892,0.0229053,0.114175,0.0243082,-0.277175,0.0450389,-0.0018895,0.0301532,-0.0282701,-0.0349037,-0.0381375,0,0,0,0,0,0,0,0,0,-0.000344731,0.000252313,-0.000578373,-0.000684979,-0.000236565,0.000572794,-0.000248851,-0.000279051,0.000371367,0.000976341,-0.000144878,-4.09965e-05
1817,0.00051179,0.000598052,0.00927386,-0.0039094,0.080929,0.080929,0.080929,0.080929,0.080929,0.080929,0.080929,0.080929,0.080929,-0.830929,0.674109,-0.677033,1.26619,0.000598052,0.00927386,-0.0039094,-0.00651252,-0.00111247,-0.000164237,0.00144342,0.00610476,-0.00185012,0.080929,0.00100543,0.00442153,-0.000852875,0.00777282,-0.000374507,-0.00048789,0.00495194,-0.00464507,0.00331123,-0.0137773,-0.000807881,0.00236543,-0.00326933,0.00102744,-0.00340796,-0.00651252,-0.00111247,-0.000164237,0.00144342,0.00610476,-0.00185012,0,0,0,0,0,0,0,0,0,-0.000508197,-2.5718e-05,-0.000364501,-0.000465218,-0.000272388,0.000344848,2.55907e-05,0.000132754,0.000328116,0.000458697,-7.97849e-05,-2.29596e-06
1818,0.00051179,-0.00610116,0.00168422,0.00842861,0.0217137,0.0217137,0.0217137,0.0217137,0.0217137,0.0217137,0.0217137,0.0217137,0.0217137,-0.978286,0.386575,0.791281,1.31629,-0.00610116,0.00168422,0.00842861,-0.000218069,-0.00174274,-0.00213502,0.0121793,-0.00376713,0.00215471,0.0217137,0.000682011,-0.0139225,0.0010627,-0.0041756,0.00122487,-0.00128441,0.0304348,0.0187988,0.00114544,-0.00278295,-0.00118035,-0.000474122,0.00527433,0.000636,-0.0383893,-0.000218069,-0.00174274,-0.00213502,0.0121793,-0.00376713,0.00215471,0,0,0,0,0,0,0,0,0,-0.000634022,-1.68104e-05,0.000179845,-0.000282825,-0.000318045,-0.000186645,4.74938e-05,-2.24389e-07,0.000284754,0.000248631,-4.92505e-05,-5.17658e-06
1819,0.00051179,0.00127272,-0.00253833,-0.000282584,0.0888085,0.0888085,0.0888085,0.0888085,0.0888085,0.0888085,0.0888085,0.0888085,0.0888085,-0.911191,-0.458839,-0.823582,1.31114,0.00127272,-0.00253833,-0.000282584,-0.00510721,0.00339613,0.00165335,-0.0051411,-0.000430911,5.55278e-05,0.0888085,-0.000466928,0.0117929,-0.00115957,0.00686943,-0.000413035,0.000557318,-0.00156523,-0.0126526,-0.00146933,0.00113112,-0.000273317,-0.00190207,-0.00546223,-0.00112991,0.00374988,-0.00510721,0.00339613,0.00165335,-0.0051411,-0.000430911,5.55278e-05,0,0,0,0,0,0,0,0,0,-0.000387035,-1.25719e-05,0.000239165,-0.000347765,-0.0002976,-0.0002168,-1.77534e-05,-6.37168e-05,0.000330143,0.000369872,5.66745e-05,9.9269e-06
1820,0.00051179,0.00993024,0.0134756,-0.00193845,0.00932067,0.00932067,0.00932067,0.00932067,0.00932067,0.00932067,0.00932067,0.00932067,0.00932067,-0.759321,0.269965,0.630409,1.02316,0.00993024,0.0134756,-0.00193845,0.003331,0.00843145,0.00739784,-0.0061229,0.00445789,0.00310034,0.00932067,-9.76175e-05,-0.0115699,0.00033439,-0.0119174,-0.000837636,0.000512581,0.014101,0.00247728,-0.00780319,0.00289547,-0.000938537,-0.000490078,-0.00445375,0.00105745,-0.0116725,0.003331,0.00843145,0.00739784,-0.0061229,0.00445789,0.00310034,0,0,0,0,0,0,0,0,0,-0.000614122,2.37072e-05,0.000151681,-0.000228721,-0.000356192,-6.4023e-05,-6.20901e-05,3.56815e-05,0.000339456,0.000307826,-4.87893e-07,2.83293e-05
1821,0.00051179,-0.0107389,-0.00054819,-0.00394536,0.0115485,0.0115485,0.0115485,0.0115485,0.0115485,0.0115485,0.0115485,0.0115485,0.0115485,-0.988452,-0.0130624,-0.880844,1.32404,-0.0107389,-0.00054819,-0.00394536,-0.000717716,0.00168358,0.00405302,-0.0126953,-0.00213292,0.00170255,0.0115485,-0.000470325,0.018144,-0.00147312,0.0095187,0.00010576,0.0011233,0.00512156,-0.00751088,-0.00214704,0.000924863,-0.000498639,0.00122667,-0.00989537,-0.00216207,-0.00240287,-0.000717716,0.00168358,0.00405302,-0.0126953,-0.00213292,0.00170255,0,0,0,0,0,0,0,0,0,-0.000312269,1.30866e-05,1.97619e-06,-0.000300966,-0.000302458,1.28433e-07,-5.51849e-05,-6.68921e-06,0.000309482,0.000352729,-1.96264e-05,1.67292e-05
1822,0.00051179,-0.0259231,0.064771,0.0636708,0.00830901,0.00830901,0.00830901,0.00830901,0.00830901,0.00830901,0.00830901,0.00830901,0.00830901,-0.758309,0.107659,0.0283554,0.766438,-0.0259231,0.064771,0.0636708,-0.00373846,-0.0318701,0.0107333,0.00439753,-0.00913712,-0.00757241,0.00830901,0.118574,0.40246,0.0798493,0.55185,0.566243,0.160799,-0.755996,-0.94278,0.112022,0.0886139,0.0889019,0.84395,-0.705235,-0.0196797,-0.151625,-0.00373846,-0.0318701,0.0107333,0.00439753,-0.00913712,-0.00757241,0,0,0,0,0,0,0,0,0,-0.000489257,0.000338791,0.000294399,0.00211533,-0.000301445,0.000185393,0.000346709,0.00097247,0.000388369,-0.000400004,-0.000174822,-0.000371649
1823,0.00051179,0.00866723,-0.0144148,0.00730306,0.114033,0.114033,0.114033,0.114033,0.114033,0.114033,0.114033,0.114033,0.114033,-0.864033,-0.00316923,-0.0436747,0.865142,0.00866723,-0.0144148,0.00730306,-0.0114148,-0.00366845,-0.00543731,-0.0063505,0.00335806,-0.00020428,0.114033,-0.0713937,-0.431626,0.00504465,-0.0228887,-0.367797,0.1004,0.445653,0.790755,-0.028374,0.0207964,-0.0124401,0.362979,0.016507,0.0234221,-0.815935,-0.0114148,-0.00366845,-0.00543731,-0.0063505,0.00335806,-0.00020428,0,0,0,0,0,0,0,0,0,-0.000580274,-0.000305217,-5.55729e-06,0.000687436,-0.000337416,1.93193e-05,-6.47974e-05,-4.80807e-05,0.000397578,0.000262193,-4.27399e-05,0.000224914
1824,0.00051179,0.00205183,0.00435852,0.00661214,0.0274331,0.0274331,0.0274331,0.0274331,0.0274331,0.0274331,0.0274331,0.0274331,0.0274331,-0.972567,0.54424,0.67209,1.30146,0.00205183,0.00435852,0.00661214,0.0016181,-0.0024476,-0.0020618,0.00635721,-0.00663866,-0.00073752,0.0274331,0.00230904,-0.0344133,-0.000369005,0.0150963,-0.000117068,-0.00357101,0.0355993,0.0324786,0.00519426,-0.0112778,-0.00101274,-0.000322874,-0.00817708,0.00486738,-0.0418886,0.0016181,-0.0024476,-0.0020618,0.00635721,-0.00663866,-0.00073752,0,0,0,0,0,0,0,0,0,-0.000562586,-2.98947e-06,0.000289163,-0.000305335,-0.000312502,-0.000317329,3.51322e-05,-9.93023e-06,0.000277594,0.000249007,-6.65837e-05,-1.97585e-06
1825,0.00051179,-0.00610773,-0.00415756,0.0191298,0.0532111,0.0532111,0.0532111,0.0532111,0.0532111,0.0532111,0.0532111,0.0532111,0.0532111,-0.946789,0.351924,0.532363,1.14178,-0.00610773,-0.00415756,0.0191298,0.00137582,0.000727165,-0.00326581,0.00740555,-0.00622012,0.00443659,0.0532111,0.00819303,-0.0861966,-0.00149124,-0.00366454,-0.00143604,-0.00959603,0.0699459,0.0937404,0.00918038,-0.0300644,-0.00109146,-0.0106611,0.0378865,0.0111139,-0.0784146,0.00137582,0.000727165,-0.00326581,0.00740555,-0.00622012,0.00443659,0,0,0,0,0,0,0,0,0,-0.000573732,-2.77258e-07,0.000220004,-0.000267672,-0.000323826,-0.000227645,3.48081e-05,-3.56339e-05,0.000290148,0.000139053,-3.74819e-05,2.96311e-05
1826,0.00051179,0.00135193,-0.00271167,0.00359593,0.0884585,0.0884585,0.0884585,0.0884585,0.0884585,0.0884585,0.0884585,0.0884585,0.0884585,-0.871951,-0.345736,0.911541,1.30795,0.00135193,-0.00271167,0.00359593,-0.00241164,-0.00132307,-0.000960922,0.00209101,-0.00112722,0.00543844,0.0884585,0.00114144,-0.00282696,-0.0001572,-0.00163841,-0.000111175,0.000436921,0.00203697,0.00158621,-0.000443565,0.000644624,-0.000251425,0.000520352,0.00370546,-0.000959087,-0.00615325,-0.00241164,-0.00132307,-0.000960922,0.00209101,-0.00112722,0.00543844,0,0,0,0,0,0,0,0,0,-0.000664942,-1.19548e-05,-0.00017295,-0.00026795,-0.000335271,0.000158148,2.63344e-06,5.168e-06,0.00033167,0.00026271,-1.89544e-05,1.6793e-05
1827,0.00051179,-0.0227578,-0.0340178,0.00407577,0.110236,0.110236,0.110236,0.110236,0.110236,0.110236,0.110236,0.110236,0.110236,-0.860236,0.855529,0.152185,1.22274,-0.0227578,-0.0340178,0.00407577,-0.00530352,0.000751913,0.0150023,-0.00205547,0.00951217,0.00934479,0.110236,0.541219,3.07053,-0.123005,-0.538466,0.00879873,-0.0261375,-3.11371,-3.05657,0.00801341,-0.139493,0.0377964,0.166153,0.711977,-0.16997,2.94348,-0.00530352,0.000751913,0.0150023,-0.00205547,0.00951217,0.00934479,0,0,0,0,0,0,0,0,0,-0.00011728,0.00223967,0.000188298,-0.00025955,-0.000461066,-0.00141083,-0.000410112,-5.80013e-05,0.000336781,0.000148198,0.000531087,-0.00124303
1828,0.00051179,-0.00136464,0.0056664,0.00289163,0.0654247,0.0654247,0.0654247,0.0654247,0.0654247,0.0654247,0.0654247,0.0654247,0.0654247,-0.934575,0.827897,0.569728,1.37238,-0.00136464,0.0056664,0.00289163,-0.000411215,-0.00127994,-0.000271112,0.00385916,-0.00670936,0.00805111,0.0654247,0.00333174,-0.0262649,-0.00214904,0.0182989,0.00885986,-0.00344303,0.0202763,0.0187697,-0.000891166,-0.00121267,0.000238009,-0.00276772,-0.0227526,0.00314559,-0.0204003,-0.000411215,-0.00127994,-0.000271112,0.00385916,-0.00670936,0.00805111,0,0,0,0,0,0,0,0,0,-0.000419833,-5.11109e-06,0.000443839,-0.000504984,-0.000323856,-0.000478128,-4.87374e-06,3.08121e-05,0.000264972,0.000467842,-9.55256e-05,3.62698e-05
1829,0.00051179,-0.000550954,-0.0187186,-0.00857086,0.00539688,0.00539688,0.00539688,0.00539688,0.00539688,0.00539688,0.00539688,0.00539688,0.00539688,-0.755397,-0.310122,0.405977,0.911931,-0.000550954,-0.0187186,-0.00857086,-0.00706827,-0.00016143,-0.00427065,-0.0188057,0.00177761,-0.0109507,0.00539688,0.00027068,-0.00207317,-0.000164025,3.32778e-05,-0.00094046,-0.000580177,0.111244,0.00356459,-0.0134866,0.0285735,0.00123938,-0.000936289,-0.00988818,0.0109566,-0.101737,-0.00706827,-0.00016143,-0.00427065,-0.0188057,0.00177761,-0.0109507,0,0,0,0,0,0,0,0,0,-0.000547476,1.11089e-05,-0.000239826,-0.000313381,-0.00032183,0.000236572,-0.000116364,7.90425e-05,0.00034529,0.000264873,-4.88725e-05,4.51264e-05
1830,0.00051179,0.0036721,0.008396,-0.00743163,0.120459,0.120459,0.120459,0.120459,0.120459,0.120459,0.120459,0.120459,0.120459,-0.879541,0.169842,-0.00205948,0.895792,0.0036721,0.008396,-0.00743163,0.00211743,-0.00566885,0.00132356,-0.000703012,0.00697878,-0.00224033,0.120459,-0.0140744,-0.0530673,-0.0033518,0.0694687,-0.0510345,0.143143,0.810986,0.10043,0.0152653,-0.0326525,0.0530899,0.336856,-0.0452122,-0.0129163,-1.14041,0.00211743,-0.00566885,0.00132356,-0.000703012,0.00697878,-0.00224033,0,0,0,0,0,0,0,0,0,-0.000553906,-4.53027e-05,-6.77112e-05,0.0011773,-0.000324482,-2.24953e-05,8.72937e-05,0.000454205,0.000405468,0.000267362,0.000146482,-6.13007e-05
1831,0.00051179,-0.00345661,-0.00269037,0.000206351,0.082802,0.082802,0.082802,0.082802,0.082802,0.082802,0.082802,0.082802,0.082802,-0.917198,0.541674,-0.468558,1.16371,-0.00345661,-0.00269037,0.000206351,-0.00467014,-0.00152506,-0.0028562,-0.000639516,-0.00344322,-0.00179503,0.082802,-0.0115617,0.183213,0.00100387,-0.0132847,0.00497495,-0.0149099,0.129259,-0.184731,0.0104024,0.0192925,-0.00116156,0.0333875,-0.00331744,-0.0134336,-0.162853,-0.00467014,-0.00152506,-0.0028562,-0.000639516,-0.00344322,-0.00179503,0,0,0,0,0,0,0,0,0,-0.00054545,-5.61235e-05,-0.000395235,-0.000418274,-0.000289315,0.000390023,7.38502e-05,4.70662e-05,0.00029967,0.000240613,-9.31141e-05,-5.11076e-05
1832,0.00051179,-0.0274643,0.014665,0.0176599,0.0575247,0.0575247,0.0575247,0.0575247,0.0575247,0.0575247,0.0575247,0.0575247,0.0575247,-0.942475,0.296069,0.0954205,0.992483,-0.0274643,0.014665,0.0176599,0.0100271,-0.00791696,-0.000967434,0.0060235,0.0206243,0.0175665,0.0575247,0.268772,1.5651,0.0556176,0.559433,0.0134074,0.0595105,0.115992,-1.55104,0.0934591,0.0343146,0.0123325,0.0133078,-0.608413,-0.0673938,-0.146959,0.0100271,-0.00791696,-0.000967434,0.0060235,0.0206243,0.0175665,0,0,0,0,0,0,0,0,0,-0.00048738,0.00101501,0.000206295,0.000524352,-0.000286991,0.000270711,0.000118427,0.000158271,0.000374034,6.10791e-05,0.000171297,-0.000628123
1833,0.00051179,0.00269951,0.00315477,-0.000943262,0.104546,0.104546,0.104546,0.104546,0.104546,0.104546,0.104546,0.104546,0.104546,-0.854546,-0.0930241,0.59072,1.043,0.00269951,0.00315477,-0.000943262,-0.00340855,-0.000327529,-0.000283148,0.00111185,2.81071e-05,0.00350447,0.104546,0.00151558,-0.0195904,-5.60209e-05,0.00703277,4.01191e-05,-0.00140397,0.0258814,0.0168508,-0.00195359,-0.00244502,-0.000504036,-0.000243366,-0.00774251,0.00313751,-0.0246948,-0.00340855,-0.000327529,-0.000283148,0.00111185,2.81071e-05,0.00350447,0,0,0,0,0,0,0,0,0,-0.000624038,-1.39732e-05,-7.10388e-05,-0.000201307,-0.000338161,6.72033e-05,-8.71711e-06,2.69756e-05,0.000321858,0.000184436,-3.17348e-05,2.87015e-05
1834,0.00051179,-0.00466067,0.000299691,-0.000524599,0.0522874,0.0522874,0.0522874,0.0522874,0.0522874,0.0522874,0.0522874,0.0522874,0.0522874,-0.802287,0.0691229,0.441161,0.918186,-0.00466067,0.000299691,-0.000524599,-6.56801e-05,-0.000361234,0.00358442,0.00355206,-0.00289371,-0.00390396,0.0522874,0.000870898,-0.0313972,-3.13446e-05,0.00612543,0.000633857,-0.00404294,0.0592183,0.035424,-0.00750987,-0.0193919,-0.00101251,-0.00521574,0.0129668,0.00569191,-0.0534779,-6.56801e-05,-0.000361234,0.00358442,0.00355206,-0.00289371,-0.00390396,0,0,0,0,0,0,0,0,0,-0.000591323,5.60068e-06,6.42415e-05,-0.000270245,-0.000343317,-6.81673e-05,-1.82145e-05,-1.07501e-05,0.000324778,0.00026566,-2.83121e-05,1.05144e-05
1835,0.00051179,0.00486517,-0.0157613,-0.0220575,0.111135,0.111135,0.111135,0.111135,0.111135,0.111135,0.111135,0.111135,0.111135,-0.861135,-0.617125,-0.128734,1.06722,0.00486517,-0.0157613,-0.0220575,0.00859918,-0.0111879,0.0209906,0.0120779,-0.00449361,0.00977343,0.111135,-0.906014,-6.57244,0.0119551,0.40783,0.973979,-0.140901,-3.14403,5.5936,-0.104641,-0.351483,0.0172792,0.10976,-0.0405857,0.103834,3.05633,0.00859918,-0.0111879,0.0209906,0.0120779,-0.00449361,0.00977343,0,0,0,0,0,0,0,0,0,-0.000961207,-0.00347588,0.000330087,-0.000191451,-0.000378037,-0.000322415,0.00054838,0.00015606,0.000351429,-0.00100766,-2.82038e-05,0.00157923
1836,0.00051179,-0.0204119,-0.00453079,-0.00637591,0.124365,0.124365,0.124365,0.124365,0.124365,0.124365,0.124365,0.124365,0.124365,-0.875635,-0.722004,-0.373186,1.19469,-0.0204119,-0.00453079,-0.00637591,-0.00575401,0.00174016,0.00366535,0.000226561,-0.00957152,-0.00485289,0.124365,-0.019327,0.378521,-0.00742488,0.0811137,0.0308445,-0.0263582,0.314658,-0.388954,0.0143657,0.0244429,-0.0143302,0.0445481,-0.101026,-0.0266833,-0.35283,-0.00575401,0.00174016,0.00366535,0.000226561,-0.00957152,-0.00485289,0,0,0,0,0,0,0,0,0,-0.000676267,-7.69147e-05,0.00054825,-0.000655106,-0.000379259,-0.000605097,0.000121452,-0.000276982,0.000317782,0.000428178,3.79653e-05,-0.000109191
1837,0.00051179,0.0137751,0.0204912,-0.00817114,0.106549,0.106549,0.106549,0.106549,0.106549,0.106549,0.106549,0.106549,0.106549,-0.893451,-0.15942,-0.178504,0.92495,0.0137751,0.0204912,-0.00817114,-0.00574988,0.00577006,-0.00134924,-0.00584651,-0.00369021,0.0032255,0.106549,-0.159123,-0.312309,0.0417367,0.137571,-0.303301,-0.0530094,-0.593029,0.601835,-0.0645842,0.0909351,0.00634418,-0.118044,-0.248997,0.0191557,0.719244,-0.00574988,0.00577006,-0.00134924,-0.00584651,-0.00369021,0.0032255,0,0,0,0,0,0,0,0,0,-0.000607319,-0.000578683,0.000311455,-0.000495907,-0.000305766,0.000163612,-0.000106474,1.53827e-05,0.000347897,-4.76792e-05,1.11569e-05,0.000357585
1838,0.00051179,-0.00439225,-0.00359515,0.00141522,0.0690647,0.0690647,0.0690647,0.0690647,0.0690647,0.0690647,0.0690647,0.0690647,0.0690647,-0.819065,0.527425,0.627611,1.15885,-0.00439225,-0.00359515,0.00141522,-0.000597166,-0.00130421,0.000331787,-0.00672696,0.00676461,0.00970038,0.0690647,0.000298515,-0.00788491,0.00034029,0.00519831,0.000468845,-0.000148363,0.0151916,0.0118083,-0.00329085,0.0047454,-0.000983355,0.00151928,-0.00634857,0.000536073,-0.0181261,-0.000597166,-0.00130421,0.000331787,-0.00672696,0.00676461,0.00970038,0,0,0,0,0,0,0,0,0,-0.000554897,-1.40094e-06,0.000301883,-0.000298419,-0.000359798,-0.000311522,-4.99967e-05,5.95398e-05,0.000321671,0.000300253,-1.72721e-06,5.12746e-05
1839,0.00051179,-0.00760608,0.0127916,-0.0204611,0.0405055,0.0405055,0.0405055,0.0405055,0.0405055,0.0405055,0.0405055,0.0405055,0.0405055,-0.790506,0.943145,-0.57143,1.35682,-0.00760608,0.0127916,-0.0204611,-0.00387347,0.00108947,0.00245641,-0.00144966,0.00917281,0.00643637,0.0405055,0.000742808,0.00275123,-0.000942759,0.010601,-0.000915978,0.000563018,0.00898327,0.00577083,0.00156911,-0.0230019,-0.00109625,0.00349423,-0.000390681,0.00337679,0.00798356,-0.00387347,0.00108947,0.00245641,-0.00144966,0.00917281,0.00643637,0,0,0,0,0,0,0,0,0,-0.000684358,-2.35017e-05,-0.000466026,-0.000684293,-0.000233257,0.000467493,-7.25118e-06,0.000250587,0.000325963,0.000714487,-0.000169821,4.12174e-05
1840,0.00051179,0.0243841,-0.00683597,0.00409454,0.102035,0.102035,0.102035,0.102035,0.102035,0.102035,0.102035,0.102035,0.102035,-0.852035,0.0679061,-0.114874,0.862422,0.0243841,-0.00683597,0.00409454,-0.00689321,0.000379646,-0.00307227,0.000247553,0.00192993,0.00299022,0.102035,-0.160946,-0.900774,-0.0470579,-0.239159,-0.65457,0.00699911,-0.443311,1.53096,-0.0933853,-0.0632186,-0.0116535,-0.00102711,0.309213,0.0462612,0.440243,-0.00689321,0.000379646,-0.00307227,0.000247553,0.00192993,0.00299022,0,0,0,0,0,0,0,0,0,-0.000622369,-0.000594897,-0.000247447,6.30032e-05,-0.000349546,-0.000219335,-0.00022139,-4.72238e-05,0.000369057,-2.37349e-05,-5.00122e-05,0.000490556
1841,0.00051179,-0.000130641,-0.00924341,0.00381256,0.0482714,0.0482714,0.0482714,0.0482714,0.0482714,0.0482714,0.0482714,0.0482714,0.0482714,-0.951729,-0.831451,0.66505,1.42807,-0.000130641,-0.00924341,0.00381256,0.000545471,5.50374e-05,-0.000802007,0.00437727,0.0129016,0.00620982,0.0482714,0.00248803,-0.0184303,0.000812896,-0.00792163,0.00288902,-0.00220883,0.0262956,0.0156719,0.00145154,0.0122123,-0.00129929,-0.00844634,0.00495274,0.000842929,-0.0216618,0.000545471,5.50374e-05,-0.000802007,0.00437727,0.0129016,0.00620982,0,0,0,0,0,0,0,0,0,-0.000437029,-3.19602e-06,-0.000443054,-0.000431061,-0.000368888,0.000451734,1.07805e-05,3.89459e-05,0.000294439,0.000400953,7.7077e-05,1.69002e-05
1842,0.00051179,-0.00878525,-0.0604031,-0.11374,0.0263404,0.0263404,0.0263404,0.0263404,0.0263404,0.0263404,0.0263404,0.0263404,0.0263404,-0.77634,0.751352,-0.152675,1.09112,-0.00878525,-0.0604031,-0.11374,-0.0602971,-0.00856113,-0.0891879,-0.0817385,-0.0443177,-0.0177705,0.0263404,-0.770655,7.28934,0.118226,-0.319712,0.766135,-0.554299,-2.45759,-8.04669,-0.033112,0.385853,0.123145,0.80883,-0.00573756,-0.448338,1.7625,-0.0602971,-0.00856113,-0.0891879,-0.0817385,-0.0443177,-0.0177705,0,0,0,0,0,0,0,0,0,-0.00123631,-0.00252563,0.000125927,-0.00597463,-8.96696e-05,0.000970723,0.00105488,5.50456e-05,0.00024645,-0.000460238,0.000733231,-0.000701415
1843,0.00051179,-0.00280383,-0.00209362,0.0016289,0.0665645,0.0665645,0.0665645,0.0665645,0.0665645,0.0665645,0.0665645,0.0665645,0.0665645,-0.816565,0.376556,0.726044,1.15573,-0.00280383,-0.00209362,0.0016289,0.0042434,2.28714e-05,0.000651088,-0.00327093,0.0044741,0.00904739,0.0665645,-7.67559e-05,0.00115008,0.000408299,-0.000800011,0.000340915,0.000314601,0.00362235,0.00131284,-0.00151997,0.000753657,-0.00122502,-5.43581e-05,0.00213997,2.54326e-05,-0.0051969,0.0042434,2.28714e-05,0.000651088,-0.00327093,0.0044741,0.00904739,0,0,0,0,0,0,0,0,0,-0.000619389,1.10849e-05,0.000194797,-0.000262032,-0.000349158,-0.000190485,-3.37028e-05,3.74783e-05,0.000327386,0.000271688,-4.98756e-06,3.56158e-05
1844,0.00051179,-0.0336641,-0.0209831,-0.0257726,0.11106,0.11106,0.11106,0.11106,0.11106,0.11106,0.11106,0.11106,0.11106,-0.888939,0.598422,-0.303115,1.11364,-0.0336641,-0.0209831,-0.0257726,-0.00379439,-0.00614614,0.0090799,-0.0057522,-0.00140359,-0.00412919,0.11106,-0.109667,1.20812,0.00483692,0.0298533,0.0823256,-0.106793,0.353327,-1.25679,0.0159359,0.0756478,-0.000761406,0.148708,-0.084518,-0.0781976,-0.476262,-0.00379439,-0.00614614,0.0090799,-0.0057522,-0.00140359,-0.00412919,0,0,0,0,0,0,0,0,0,-0.000678606,-0.000353149,-0.000495793,-0.00104742,-0.000257129,0.000482701,0.000265078,4.13711e-05,0.000279382,7.02963e-05,-6.30211e-05,-0.000197475
1845,0.00051179,-0.0330048,0.00753143,-0.00736856,0.0995561,0.0995561,0.0995561,0.0995561,0.0995561,0.0995561,0.0995561,0.0995561,0.0995561,-0.900444,-0.604846,-0.253625,1.11399,-0.0330048,0.00753143,-0.00736856,-0.0051718,-0.00243017,0.0131255,-0.00189554,-0.00251733,0.00360277,0.0995561,-0.231361,0.867349,-0.00825738,0.0483137,0.237513,-0.166545,-0.522768,-1.07186,-0.0171011,-0.137921,0.00259254,0.204267,0.0820758,-0.0712123,0.325869,-0.0051718,-0.00243017,0.0131255,-0.00189554,-0.00251733,0.00360277,0,0,0,0,0,0,0,0,0,-0.000723913,-0.000809813,0.000456578,-0.00120945,-0.000360513,-0.000563453,0.00027787,-5.02159e-05,0.000304207,-0.000324746,5.0968e-05,3.48053e-05
1846,0.00051179,0.000965601,0.00784512,-0.0152652,0.0253463,0.0253463,0.0253463,0.0253463,0.0253463,0.0253463,0.0253463,0.0253463,0.0253463,-0.775346,0.17076,0.401606,0.889724,0.000965601,0.00784512,-0.0152652,0.000406028,0.000525624,0.00121232,0.00452024,-0.00757581,-0.00222355,0.0253463,0.000501111,-0.0184233,-0.000114016,-0.00737815,-0.00193248,-0.0030931,0.102926,0.0193902,-0.012619,-0.0449303,-0.0021132,-0.00130165,0.0444633,0.00883025,-0.0863596,0.000406028,0.000525624,0.00121232,0.00452024,-0.00757581,-0.00222355,0,0,0,0,0,0,0,0,0,-0.000568904,5.21064e-06,0.000145961,-0.000317312,-0.00034734,-0.000141845,-3.9819e-05,-6.67349e-05,0.000328854,0.000298504,-3.01552e-05,3.37084e-05
1847,0.00051179,0.00798887,0.0187078,-0.0101919,0.0409921,0.0409921,0.0409921,0.0409921,0.0409921,0.0409921,0.0409921,0.0409921,0.0409921,-0.959008,-0.692995,0.464206,1.27099,0.00798887,0.0187078,-0.0101919,0.00142618,0.00107453,-0.00385289,0.00886668,0.0119962,-0.00371878,0.0409921,0.0134842,-0.119378,0.00527627,-0.0459943,-0.0272236,-0.0138419,0.0605701,0.138612,0.00231938,0.00269912,-0.00291287,0.0386156,0.0245873,0.0115641,-0.0889939,0.00142618,0.00107453,-0.00385289,0.00886668,0.0119962,-0.00371878,0,0,0,0,0,0,0,0,0,-0.00042367,3.53884e-05,-0.000510162,-0.000332803,-0.000374073,0.00057367,1.67667e-05,8.90705e-06,0.000302762,0.000155855,8.19264e-05,6.29443e-08
1848,0.00051179,0.0198151,0.00352998,0.0137976,0.0280335,0.0280335,0.0280335,0.0280335,0.0280335,0.0280335,0.0280335,0.0280335,0.0280335,-0.971966,0.62732,0.0013106,1.15683,0.0198151,0.00352998,0.0137976,0.0028922,0.000195545,-0.0330854,0.00220376,0.0177728,-0.00632205,0.0280335,0.0363287,-0.120718,-0.00417029,0.00735267,0.0029811,0.236011,1.49782,0.0979222,0.0250738,-0.00318087,-0.0269712,-0.31312,-0.00770178,0.00810301,-1.1985,0.0028922,0.000195545,-0.0330854,0.00220376,0.0177728,-0.00632205,0,0,0,0,0,0,0,0,0,-0.000590287,0.00011732,1.28652e-05,0.00136013,-0.000288958,-5.26126e-05,5.76039e-05,0.000116495,0.000439428,0.000669124,-0.000208479,-6.98791e-05
1849,0.00051179,0.281643,-0.245998,0.539313,0.000732309,0.000732309,0.000732309,0.000732309,0.000732309,0.000732309,0.000732309,0.000732309,0.000732309,-0.72479,0.573093,-0.100732,0.929464,0.281643,-0.245998,0.539313,0.161708,-0.166873,0.0201315,-0.0907156,-0.0808713,-0.106057,0.000732309,-3.51877,-36.8143,-0.209155,-2.03166,2.87479,-1.13393,-17.1259,33.6578,-0.839974,0.740427,-0.0489183,0.92771,1.53723,-0.842607,15.6589,0.161708,-0.166873,0.0201315,-0.0907156,-0.0808713,-0.106057,0,0,0,0,0,0,0,0,0,-0.00182436,-0.0107433,-0.00144484,-0.00226434,-0.000389779,-0.00231545,0.00138857,-0.00115721,-2.01389e-05,-0.00887366,-0.000140681,0.00129869
1850,0.00051179,-0.00432198,0.000468563,-0.0081348,0.0485038,0.0485038,0.0485038,0.0485038,0.0485038,0.0485038,0.0485038,0.0485038,0.0485038,-0.951496,-0.530295,-0.541637,1.21652,-0.00432198,0.000468563,-0.0081348,-0.00710117,0.00179894,-0.00397882,-0.00800037,0.00435428,0.00595209,0.0485038,-0.00651602,0.101747,-0.0025311,0.0103182,0.00347045,-0.00947735,0.0706242,-0.100895,0.00135897,0.00210771,-0.00506893,0.00137505,-0.0128945,-0.00576696,-0.0638645,-0.00710117,0.00179894,-0.00397882,-0.00800037,0.00435428,0.00595209,0,0,0,0,0,0,0,0,0,-0.000506647,-4.49243e-05,0.000358449,-0.000350359,-0.00030523,-0.000365771,-1.00453e-05,-8.74208e-05,0.000316724,0.000215797,8.02743e-05,2.40874e-05
1851,0.00051179,-0.0548267,0.0864577,-0.0968766,0.00779547,0.00779547,0.00779547,0.00779547,0.00779547,0.00779547,0.00779547,0.00779547,0.00779547,-0.757795,0.945862,-0.254186,1.23835,-0.0548267,0.0864577,-0.0968766,-0.105396,-0.048771,0.16984,0.0328351,0.0967044,0.21546,0.00779547,0.00199188,0.0269234,0.000803299,-0.123061,0.0156269,-0.00195489,0.266393,0.0122764,0.00654082,-0.239556,0.0206309,-0.221595,0.27616,0.00492321,0.0520785,-0.105396,-0.048771,0.16984,0.0328351,0.0967044,0.21546,0,0,0,0,0,0,0,0,0,-0.000974342,-0.00069743,-0.000781737,-0.00158527,-6.19236e-05,0.00030206,1.64699e-05,0.00118076,0.000441864,0.00326413,-7.40332e-06,0.000921506
1852,0.00051179,0.011369,-0.0127543,0.00813058,0.0405474,0.0405474,0.0405474,0.0405474,0.0405474,0.0405474,0.0405474,0.0405474,0.0405474,-0.790547,-0.615259,-0.61085,1.17331,0.011369,-0.0127543,0.00813058,-0.00488774,0.000990257,0.00337661,0.00460064,-0.0109571,0.00102493,0.0405474,0.000951424,-0.0115227,-0.000778548,0.00754268,9.58776e-05,-0.000145551,0.0199723,5.7751e-05,0.0093895,0.0267771,-0.00304624,-0.00178768,-0.0215654,-0.00118278,-0.0263152,-0.00488774,0.000990257,0.00337661,0.00460064,-0.0109571,0.00102493,0,0,0,0,0,0,0,0,0,-0.000515565,-3.11e-05,0.000375447,-0.000392704,-0.000359142,-0.00037333,5.85323e-05,-0.000169984,0.000369377,0.000425015,2.99512e-05,-1.22077e-05
1853,0.00051179,-0.0216581,-0.0172148,0.0030745,0.089949,0.089949,0.089949,0.089949,0.089949,0.089949,0.089949,0.089949,0.089949,-0.910051,-0.360864,-0.244934,1.00916,-0.0216581,-0.0172148,0.0030745,-0.00568089,-0.000597216,0.00828046,-0.00230434,-0.00849215,-0.00114452,0.089949,-0.197061,0.614733,0.0311435,-0.100506,0.0117354,-0.129247,-0.410885,-0.604811,-0.0500147,-0.0348839,0.0274729,-0.0419384,0.152605,-0.0382893,0.449749,-0.00568089,-0.000597216,0.00828046,-0.00230434,-0.00849215,-0.00114452,0,0,0,0,0,0,0,0,0,-0.00061965,-0.000673909,0.000379424,-0.000926324,-0.000310564,-7.39616e-05,7.82066e-05,0.000128188,0.000324965,-0.000283338,6.16197e-05,0.000142633
1854,0.00051179,0.0707664,-0.0254664,-0.0615156,0.0187587,0.0187587,0.0187587,0.0187587,0.0187587,0.0187587,0.0187587,0.0187587,0.0187587,-0.768759,0.93668,-0.153556,1.22145,0.0707664,-0.0254664,-0.0615156,-0.123917,0.0974648,0.0238187,0.0106482,0.17314,0.143633,0.0187587,-0.375624,6.72546,0.114924,-1.03584,-1.1407,-0.238985,-1.25562,-5.65553,-0.00298323,-0.0558622,0.133124,-1.40764,1.11717,-0.00669422,2.72478,-0.123917,0.0974648,0.0238187,0.0106482,0.17314,0.143633,0,0,0,0,0,0,0,0,0,-0.00123205,-0.00208816,-0.000582136,-0.00437417,8.4376e-05,0.00270602,0.000447867,0.00166085,0.000481836,0.00222251,0.00140179,0.00109424
1855,0.00051179,0.0311871,0.0138853,-0.0436836,0.0825181,0.0825181,0.0825181,0.0825181,0.0825181,0.0825181,0.0825181,0.0825181,0.0825181,-0.917482,-0.887972,0.130695,1.28349,0.0311871,0.0138853,-0.0436836,-0.00425075,-0.0105403,0.0219614,-0.000106275,0.0133911,0.00136307,0.0825181,0.368174,3.09212,0.0928424,0.534032,0.357796,0.200102,-0.890714,-3.48111,0.0133415,0.110039,-0.00295052,0.0340026,-0.657956,-0.157005,0.900395,-0.00425075,-0.0105403,0.0219614,-0.000106275,0.0133911,0.00136307,0,0,0,0,0,0,0,0,0,-0.000223927,0.00156402,-0.000590936,0.0012538,-0.000288153,0.00141396,-0.00018942,0.000187773,0.000379033,0.000966827,-8.33674e-05,-0.00103381
1856,0.00051179,0.00044211,0.00161654,0.00164546,0.0361436,0.0361436,0.0361436,0.0361436,0.0361436,0.0361436,0.0361436,0.0361436,0.0361436,-0.963856,0.566832,0.579759,1.25954,0.00044211,0.00161654,0.00164546,0.00247603,-0.00199913,-0.00451988,0.00690637,-0.00761711,-0.00102384,0.0361436,0.00639553,-0.0605725,-0.00238185,0.0112202,-0.00430789,-0.00756763,0.0420848,0.0644383,0.00490318,-0.029329,-0.00107001,0.00230873,0.0164922,0.00840981,-0.046039,0.00247603,-0.00199913,-0.00451988,0.00690637,-0.00761711,-0.00102384,0,0,0,0,0,0,0,0,0,-0.00052654,1.19727e-05,0.000338941,-0.000327537,-0.000313366,-0.000382751,2.66627e-05,-2.16308e-05,0.000277869,0.000206662,-6.52404e-05,4.54476e-06
1857,0.00051179,0.0107174,-0.00937382,0.0157906,0.00954593,0.00954593,0.00954593,0.00954593,0.00954593,0.00954593,0.00954593,0.00954593,0.00954593,-0.759546,-0.137535,0.904306,1.18895,0.0107174,-0.00937382,0.0157906,0.0065488,-0.00322538,0.00361855,-0.00880108,-0.000502125,0.0089746,0.00954593,0.000551358,-0.0126309,-0.000119381,0.00341203,0.00064649,0.000283267,-0.00498327,0.00126708,-0.000645773,0.00098299,-0.000219668,0.000177103,0.0049788,-0.000629574,-0.0109845,0.0065488,-0.00322538,0.00361855,-0.00880108,-0.000502125,0.0089746,0,0,0,0,0,0,0,0,0,-0.00068859,2.85796e-05,-7.64448e-05,-0.000239629,-0.00032624,4.29972e-05,-5.41554e-05,2.59208e-05,0.000354968,0.000278647,-3.31387e-05,3.4804e-05
1858,0.00051179,-0.000170413,0.00262957,0.00127357,0.117214,0.117214,0.117214,0.117214,0.117214,0.117214,0.117214,0.117214,0.117214,-0.867214,-0.41826,0.77318,1.23483,-0.000170413,0.00262957,0.00127357,0.000178384,-0.00179483,3.62825e-05,0.000682918,-0.00105815,0.00415007,0.117214,0.000296369,-0.00315145,0.000300653,-0.00374259,-0.000862093,9.29497e-05,0.006078,0.00418396,-0.000790553,-0.00117588,-0.00075829,0.000353221,0.0022889,-0.000164963,-0.00770479,0.000178384,-0.00179483,3.62825e-05,0.000682918,-0.00105815,0.00415007,0,0,0,0,0,0,0,0,0,-0.00061325,-2.64803e-06,-0.000234484,-0.000265363,-0.000334615,0.000219542,-5.55997e-06,1.59147e-07,0.00033205,0.000266656,-1.83236e-05,1.49037e-05
1859,0.00051179,-0.00388418,0.00156678,0.00431461,0.0935166,0.0935166,0.0935166,0.0935166,0.0935166,0.0935166,0.0935166,0.0935166,0.0935166,-0.906483,0.357985,0.787429,1.25296,-0.00388418,0.00156678,0.00431461,-0.00113153,-0.000326237,-0.00058998,0.00518262,-0.000780035,0.00402723,0.0935166,0.000164285,-0.00318806,0.000640281,-0.00610232,0.000624646,-5.69336e-05,0.0094926,0.0064476,-0.000863897,-0.000498011,-0.000985007,-0.000183908,0.00503355,-0.000137139,-0.0136233,-0.00113153,-0.000326237,-0.00058998,0.00518262,-0.000780035,0.00402723,0,0,0,0,0,0,0,0,0,-0.000639118,-1.31919e-05,0.000167869,-0.000275331,-0.000331396,-0.000164729,1.32379e-05,1.31159e-05,0.000304401,0.000268862,-3.07663e-05,1.10948e-05
1860,0.00051179,0.00987867,-0.0113316,0.00731891,0.0647469,0.0647469,0.0647469,0.0647469,0.0647469,0.0647469,0.0647469,0.0647469,0.0647469,-0.814747,-0.327425,0.298863,0.927544,0.00987867,-0.0113316,0.00731891,-0.00218421,-0.00155866,-0.0131492,0.000499642,0.0235603,0.00399302,0.0647469,0.0126872,-0.461995,-0.00151341,0.078707,-0.00557226,-0.0274936,0.591063,0.457689,-0.00337313,0.202709,0.0158905,-0.0237715,-0.270084,0.0434855,-0.574611,-0.00218421,-0.00155866,-0.0131492,0.000499642,0.0235603,0.00399302,0,0,0,0,0,0,0,0,0,-0.000492074,-1.10711e-05,-0.000329268,-0.00071449,-0.000363464,0.000298548,-7.79536e-05,0.000334639,0.000314504,0.000308062,5.98686e-05,0.000173806
1861,0.00051179,-0.0245087,0.00507599,-0.0051904,0.0736195,0.0736195,0.0736195,0.0736195,0.0736195,0.0736195,0.0736195,0.0736195,0.0736195,-0.926381,0.072772,0.168692,0.944422,-0.0245087,0.00507599,-0.0051904,0.017622,-0.00252665,0.00169451,0.00577984,0.00740393,0.00886422,0.0736195,0.0964238,0.312742,0.0260285,0.0831898,0.241584,-0.0012746,-0.323904,-0.529817,0.089468,-0.00104214,-0.0131573,-0.0837175,-0.0872236,-0.0426908,0.412812,0.017622,-0.00252665,0.00169451,0.00577984,0.00740393,0.00886422,0,0,0,0,0,0,0,0,0,-0.000503935,0.000367767,0.000101415,-3.39594e-05,-0.000327969,0.000133604,0.000273777,-4.36467e-05,0.000322886,3.81584e-05,-1.38865e-05,-0.000371595
1862,0.00051179,-0.0151049,-0.00193791,0.00485754,0.120379,0.120379,0.120379,0.120379,0.120379,0.120379,0.120379,0.120379,0.120379,-0.870379,-0.654135,-0.388548,1.15604,-0.0151049,-0.00193791,0.00485754,-0.00464842,0.000766538,0.00200804,0.00349121,-0.00737849,-0.00523698,0.120379,-0.0178045,0.345032,-0.00395554,0.0471543,0.0266099,-0.0251001,0.310894,-0.356537,0.0148081,0.00955026,-0.0102773,0.0394359,-0.0547666,-0.0272694,-0.355187,-0.00464842,0.000766538,0.00200804,0.00349121,-0.00737849,-0.00523698,0,0,0,0,0,0,0,0,0,-0.000631541,-6.99645e-05,0.000494727,-0.000603463,-0.000369811,-0.000526617,0.000133797,-0.000207776,0.00032381,0.000372542,3.12187e-05,-0.000120232
1863,0.00051179,0.029001,0.000469226,-0.0210415,0.00257111,0.00257111,0.00257111,0.00257111,0.00257111,0.00257111,0.00257111,0.00257111,0.00257111,-0.997429,-0.209733,-0.318502,1.06785,0.029001,0.000469226,-0.0210415,-0.0070556,-0.00347376,-0.006363,0.00258343,-0.017208,0.00620624,0.00257111,-0.063907,0.169554,0.0125638,0.0080161,-0.0633509,-0.0417459,-0.0091283,-0.135204,-0.0382168,0.00778657,0.00880053,-0.0594955,-0.0162719,-0.00676228,0.0896653,-0.0070556,-0.00347376,-0.006363,0.00258343,-0.017208,0.00620624,0,0,0,0,0,0,0,0,0,-0.000510253,-0.000231176,7.63118e-05,-0.000372908,-0.000313008,1.45883e-05,-5.45297e-05,-1.28105e-05,0.000329606,-0.000108181,-7.12643e-05,0.000120857
1864,0.00051179,-0.00511152,-0.0199388,0.0089162,0.0382944,0.0382944,0.0382944,0.0382944,0.0382944,0.0382944,0.0382944,0.0382944,0.0382944,-0.961706,-0.219086,0.0689264,0.98875,-0.00511152,-0.0199388,0.0089162,0.00779423,-0.00502748,-0.0140273,-0.000457756,-0.0135348,0.0183653,0.0382944,0.137617,0.827644,-0.0119579,-0.408015,0.0630995,0.0775802,0.236162,-0.885632,0.0700829,-0.0122488,-0.0406101,0.079223,0.440203,-0.0473565,-0.324302,0.00779423,-0.00502748,-0.0140273,-0.000457756,-0.0135348,0.0183653,0,0,0,0,0,0,0,0,0,-0.000525855,0.000512389,-6.83748e-05,0.00030755,-0.00038516,-0.000101479,0.000133458,-0.00029121,0.000382192,0.000327979,-0.000250239,-0.000359624
1865,0.00051179,0.00149962,-0.0024094,-0.00745542,0.0493377,0.0493377,0.0493377,0.0493377,0.0493377,0.0493377,0.0493377,0.0493377,0.0493377,-0.869303,0.739057,-0.950662,1.48514,0.00149962,-0.0024094,-0.00745542,-0.00239876,-4.12837e-05,0.000391036,-0.0024693,-0.00165434,0.00204721,0.0493377,0.0014223,-0.00798848,-0.000511937,0.00306639,-0.000292044,0.000684232,0.00014206,0.0067809,-0.000381203,0.00138148,8.08863e-05,-4.2185e-05,-0.00203847,-0.00108204,0.00735554,-0.00239876,-4.12837e-05,0.000391036,-0.0024693,-0.00165434,0.00204721,0,0,0,0,0,0,0,0,0,-0.000399001,-1.58023e-06,-0.00025318,-0.000486648,-0.00031417,0.000247647,-1.09504e-05,0.000108115,0.000300974,0.0004974,-0.000123849,8.12789e-06
1866,0.00051179,-0.00593054,0.02961,0.0542746,0.0285538,0.0285538,0.0285538,0.0285538,0.0285538,0.0285538,0.0285538,0.0285538,0.0285538,-0.971446,-0.516274,-0.171332,1.11337,-0.00593054,0.02961,0.0542746,0.0189411,-0.0128093,0.0288863,-0.0300197,-0.0118671,-0.0087437,0.0285538,-0.41188,-1.75135,0.0163224,0.385608,0.393792,-0.0946638,-0.823256,1.36349,-0.0657781,-0.103951,-0.000198516,-0.0217389,-0.311266,0.031969,0.79072,0.0189411,-0.0128093,0.0288863,-0.0300197,-0.0118671,-0.0087437,0,0,0,0,0,0,0,0,0,-0.000655271,-0.00142757,0.000358174,-0.000239665,-0.000317687,-0.000323043,5.81395e-05,-0.000152878,0.000382327,-0.00041811,3.2222e-05,0.000653255
1867,0.00051179,-0.015516,0.00175369,0.00458991,0.012982,0.012982,0.012982,0.012982,0.012982,0.012982,0.012982,0.012982,0.012982,-0.762982,0.0808494,-0.529354,0.932144,-0.015516,0.00175369,0.00458991,-0.0117285,-0.000273903,-0.00016202,0.00384585,-0.00158464,0.00830473,0.012982,0.000302926,0.0172035,-0.000137679,0.020224,-2.16824e-05,-0.000253674,0.0312527,-0.0016659,0.0253464,-0.00603547,-0.00535544,0.00155622,-0.0159422,-0.0049208,-0.0373988,-0.0117285,-0.000273903,-0.00016202,0.00384585,-0.00158464,0.00830473,0,0,0,0,0,0,0,0,0,-0.000431575,-8.15326e-05,-5.49429e-05,-0.000324922,-0.000301057,5.0827e-05,0.000121557,-3.70336e-05,0.000379801,0.000320765,-3.23672e-05,-7.48486e-06
1868,0.00051179,0.00303873,-0.00561735,0.0123728,0.0813973,0.0813973,0.0813973,0.0813973,0.0813973,0.0813973,0.0813973,0.0813973,0.0813973,-0.918603,0.276625,0.430138,1.05137,0.00303873,-0.00561735,0.0123728,0.00111087,0.000108121,-0.0013408,0.00597014,-0.00621708,0.00370052,0.0813973,0.0133946,-0.155539,0.0021776,-0.0497646,0.0043814,-0.018099,0.115621,0.148119,0.0139112,-0.056488,-0.00577121,-0.0264805,0.11187,0.0183601,-0.101514,0.00111087,0.000108121,-0.0013408,0.00597014,-0.00621708,0.00370052,0,0,0,0,0,0,0,0,0,-0.000559635,7.39576e-06,0.00019371,-0.000320161,-0.000326211,-0.000170852,3.42749e-05,-7.71121e-05,0.000292689,0.000125763,-4.27707e-05,4.51715e-05
1869,0.00051179,-0.00165716,0.0058202,-0.00220558,0.0804278,0.0804278,0.0804278,0.0804278,0.0804278,0.0804278,0.0804278,0.0804278,0.0804278,-0.830428,0.803817,0.378715,1.21621,-0.00165716,0.0058202,-0.00220558,-0.00162694,0.00156578,0.00802324,-0.00697981,0.0202779,0.00454734,0.0804278,0.00293727,-0.0921018,-0.0062499,0.0938178,0.00041636,-0.00580571,0.0993914,0.0933426,-0.0182217,0.0804093,0.0148544,0.00930699,-0.180047,0.00991479,-0.106493,-0.00162694,0.00156578,0.00802324,-0.00697981,0.0202779,0.00454734,0,0,0,0,0,0,0,0,0,-0.000330709,1.74313e-05,0.000578973,-0.00056275,-0.00040319,-0.000625814,-0.000115128,0.00025521,0.000307016,0.000584925,9.61125e-05,8.31903e-05
1870,0.00051179,0.000420648,-0.00302455,0.0039037,0.0618356,0.0618356,0.0618356,0.0618356,0.0618356,0.0618356,0.0618356,0.0618356,0.0618356,-0.811836,0.379929,0.834916,1.22495,0.000420648,-0.00302455,0.0039037,0.00569417,0.000665881,0.000386609,-0.00171546,0.00336059,0.00774716,0.0618356,0.00046815,-0.00176764,9.09045e-05,-0.00169634,-5.92047e-05,0.000441875,0.000917057,0.0014062,-0.000955241,-0.000425116,-0.000786749,-0.000217753,0.00514601,-0.000452772,-0.00460301,0.00569417,0.000665881,0.000386609,-0.00171546,0.00336059,0.00774716,0,0,0,0,0,0,0,0,0,-0.000648856,1.83662e-05,0.000173029,-0.000290979,-0.000346446,-0.000165461,-2.57989e-05,3.09747e-05,0.000331938,0.000299264,-5.23625e-06,2.40265e-05
1871,0.00051179,-0.000408241,0.00263548,0.000917199,0.107025,0.107025,0.107025,0.107025,0.107025,0.107025,0.107025,0.107025,0.107025,-0.857025,-0.450877,0.768766,1.23644,-0.000408241,0.00263548,0.000917199,0.000987661,-0.00172979,0.000386139,-0.000197389,-0.00153598,0.00433229,0.107025,0.00023742,-0.0021423,0.000300653,-0.00317935,-0.000909769,0.000162691,0.00497581,0.00346031,-0.000740873,-0.00141919,-0.000802337,0.000426875,0.00196306,-0.000238903,-0.00631988,0.000987661,-0.00172979,0.000386139,-0.000197389,-0.00153598,0.00433229,0,0,0,0,0,0,0,0,0,-0.00060422,1.07132e-06,-0.000251536,-0.000272425,-0.000331992,0.000237245,-9.74539e-06,-4.44091e-06,0.000335306,0.000277913,-1.89422e-05,1.54129e-05
1872,0.00051179,0.000422015,-0.00121189,-0.00735518,0.0772567,0.0772567,0.0772567,0.0772567,0.0772567,0.0772567,0.0772567,0.0772567,0.0772567,-0.827257,-0.580719,-0.766169,1.26831,0.000422015,-0.00121189,-0.00735518,-0.00710918,0.00186756,0.00292927,0.000743709,-0.00502975,-0.00198639,0.0772567,0.000296727,0.00961519,-0.000770204,0.00469424,-0.000496781,-0.000220593,0.00493718,-0.00954043,0.00096084,0.00221273,-0.000632422,-0.00102016,-0.00569507,0.000657637,0.00343816,-0.00710918,0.00186756,0.00292927,0.000743709,-0.00502975,-0.00198639,0,0,0,0,0,0,0,0,0,-0.000443093,-2.66354e-05,0.000302566,-0.000388501,-0.000323648,-0.000291592,1.59497e-05,-0.000111151,0.000356808,0.000415588,5.45289e-05,7.83159e-07
1873,0.00051179,-0.0023381,-0.0021356,-0.00595136,0.00578744,0.00578744,0.00578744,0.00578744,0.00578744,0.00578744,0.00578744,0.00578744,0.00578744,-0.994213,-0.157202,0.887637,1.34204,-0.0023381,-0.0021356,-0.00595136,-3.70544e-05,-0.00100162,0.000842383,0.0138015,-0.000776535,0.00367293,0.00578744,0.00179727,-0.0111813,0.000422962,-0.00608518,0.000113261,-0.00099596,0.0270497,0.0134061,0.00264241,0.00246674,-0.000254743,-0.000405297,0.00575403,-0.00088964,-0.020693,-3.70544e-05,-0.00100162,0.000842383,0.0138015,-0.000776535,0.00367293,0,0,0,0,0,0,0,0,0,-0.000680938,-1.54152e-05,-9.31405e-05,-0.00024276,-0.000344807,8.73539e-05,5.80034e-05,1.34998e-05,0.000298232,0.000241224,-2.38126e-05,-1.02998e-05
1874,0.00051179,0.00206006,0.0148336,-0.0356637,0.0366708,0.0366708,0.0366708,0.0366708,0.0366708,0.0366708,0.0366708,0.0366708,0.0366708,-0.963329,-0.0908581,0.239817,0.996881,0.00206006,0.0148336,-0.0356637,0.00601855,-0.00468128,-0.0025964,-0.0115477,-0.0025996,0.00962172,0.0366708,0.06506,0.00413928,0.00193513,-0.0235582,0.113195,-0.0190193,-0.194595,-0.119394,0.0827364,-0.00312635,0.00385341,-0.0886665,0.011851,-0.0167132,0.318925,0.00601855,-0.00468128,-0.0025964,-0.0115477,-0.0025996,0.00962172,0,0,0,0,0,0,0,0,0,-0.000527851,0.000199421,-3.73876e-05,-0.000240134,-0.000368828,9.9261e-06,0.000199971,7.75287e-05,0.000307776,2.39764e-05,-6.49907e-05,-0.000191429
1875,0.00051179,-0.0106292,0.0101078,-0.00943971,0.116222,0.116222,0.116222,0.116222,0.116222,0.116222,0.116222,0.116222,0.116222,-0.883778,-0.793479,0.00443518,1.18773,-0.0106292,0.0101078,-0.00943971,0.00573099,-0.00750704,0.00654706,0.0014543,-0.000552977,-0.00836724,0.116222,0.0382891,0.171731,0.0147643,0.0863165,-0.0289067,0.548207,3.60856,-0.132195,0.0030425,0.0340438,0.0810951,-0.226725,-0.130468,-0.0118281,-3.3724,0.00573099,-0.00750704,0.00654706,0.0014543,-0.000552977,-0.00836724,0,0,0,0,0,0,0,0,0,-0.000544749,0.000187422,-4.7062e-05,0.00429344,-0.000363225,0.000119634,-1.01947e-05,0.000985405,0.000523597,0.0012541,-0.000179984,-0.000133655
1876,0.00051179,0.00338881,-0.00183345,-0.000426833,0.113258,0.113258,0.113258,0.113258,0.113258,0.113258,0.113258,0.113258,0.113258,-0.886742,0.393584,-0.660838,1.17385,0.00338881,-0.00183345,-0.000426833,-0.00328686,-0.00137762,0.000801463,-0.000196407,-0.000626643,-0.00232175,0.113258,-0.000212714,0.0184737,-0.00190973,0.017698,0.00155786,-0.00192887,0.0114582,-0.0234204,0.00520147,-0.00314415,-0.00128517,0.00516289,-0.0127204,-0.000709455,-0.0161942,-0.00328686,-0.00137762,0.000801463,-0.000196407,-0.000626643,-0.00232175,0,0,0,0,0,0,0,0,0,-0.000429474,-1.57374e-05,-0.000229749,-0.000347331,-0.000295484,0.000196875,2.67858e-05,4.48607e-05,0.000325374,0.000336057,-6.39788e-05,-1.33956e-05
1877,0.00051179,-0.0363924,0.0058677,-0.0031476,0.090448,0.090448,0.090448,0.090448,0.090448,0.090448,0.090448,0.090448,0.090448,-0.909552,-0.493244,-0.24547,1.0634,-0.0363924,0.0058677,-0.0031476,-0.00365788,-0.0025333,0.0179499,-0.00360234,-0.00879615,0.00205571,0.090448,-0.258538,0.66449,0.0172672,-0.0204262,0.190791,-0.172506,-0.62367,-0.818889,-0.0396597,-0.115672,0.0225748,0.118266,0.130231,-0.0575129,0.508551,-0.00365788,-0.0025333,0.0179499,-0.00360234,-0.00879615,0.00205571,0,0,0,0,0,0,0,0,0,-0.000674725,-0.000894537,0.00044511,-0.00110325,-0.00032931,-0.000297771,0.00020013,6.78651e-05,0.000315651,-0.000442314,6.99218e-05,0.000139154
1878,0.00051179,-0.000709828,0.00553524,-0.00424548,0.11658,0.11658,0.11658,0.11658,0.11658,0.11658,0.11658,0.11658,0.11658,-0.86658,-0.136374,0.535637,1.02785,-0.000709828,0.00553524,-0.00424548,-0.00269764,0.00145394,0.000179451,0.00220244,0.00124662,0.0037316,0.11658,0.00257571,-0.0345043,-0.000493757,0.0132248,-8.73031e-05,-0.00321966,0.042034,0.0353014,0.00159363,-2.08777e-05,0.000451376,-6.13565e-05,-0.0187392,0.00548067,-0.0377272,-0.00269764,0.00145394,0.000179451,0.00220244,0.00124662,0.0037316,0,0,0,0,0,0,0,0,0,-0.000608854,-1.54786e-05,-0.000102205,-0.000211358,-0.000341112,0.000111807,4.11142e-06,4.51744e-05,0.000319324,0.000180956,-2.81945e-05,3.11924e-05
1879,0.00051179,0.0648756,-0.00138268,0.00784516,0.0270072,0.0270072,0.0270072,0.0270072,0.0270072,0.0270072,0.0270072,0.0270072,0.0270072,-0.777007,-0.757664,0.260465,1.11608,0.0648756,-0.00138268,0.00784516,0.0210882,0.00678991,-0.00630975,-0.0259368,-0.0337956,-0.00575487,0.0270072,0.00546737,-0.513047,0.00674153,-0.288831,0.00454077,-0.0174563,1.09285,0.44363,-0.0508662,-0.181452,-0.0366497,0.101889,0.471666,0.0659127,-1.20258,0.0210882,0.00678991,-0.00630975,-0.0259368,-0.0337956,-0.00575487,0,0,0,0,0,0,0,0,0,-0.000247158,0.000121343,-0.000530404,-0.00147801,-0.000211591,0.000665718,-0.00039545,-0.00036697,0.000350684,0.00124035,-0.000337483,0.000289354
1880,0.00051179,-0.006835,-0.0500677,-0.0256409,0.00681262,0.00681262,0.00681262,0.00681262,0.00681262,0.00681262,0.00681262,0.00681262,0.00681262,-0.993187,-0.252338,0.259218,1.05702,-0.006835,-0.0500677,-0.0256409,0.0133382,0.0040137,0.0102707,-0.0066729,-0.0152407,0.0134322,0.00681262,0.120989,-0.113809,-0.0106159,-0.0237558,0.064039,-0.0445624,-0.186273,0.0566047,0.0837664,0.0192776,0.0149214,-0.0556969,0.054546,-0.00834775,0.267611,0.0133382,0.0040137,0.0102707,-0.0066729,-0.0152407,0.0134322,0,0,0,0,0,0,0,0,0,-0.000530146,0.000421821,-9.20841e-05,-0.000151216,-0.000393951,2.60618e-05,0.000135654,0.000127847,0.000321768,-0.000191702,-0.00013104,-0.000224391
1881,0.00051179,-0.000553966,0.00203445,-0.00714725,0.0410173,0.0410173,0.0410173,0.0410173,0.0410173,0.0410173,0.0410173,0.0410173,0.0410173,-0.958983,0.115645,-0.430804,1.05765,-0.000553966,0.00203445,-0.00714725,-0.00172735,-0.0011587,3.64669e-05,0.0096478,-0.00836199,-0.000827544,0.0410173,-0.0166916,0.110052,0.00137783,-0.0194891,-0.00471148,-0.0202881,0.0551802,-0.104786,-0.0216686,0.00823869,-0.0041517,-0.0148233,0.00921594,-0.0115009,-0.0332097,-0.00172735,-0.0011587,3.64669e-05,0.0096478,-0.00836199,-0.000827544,0,0,0,0,0,0,0,0,0,-0.000463873,-4.27466e-05,-7.22059e-05,-0.00040925,-0.000318492,7.43972e-05,-1.0756e-05,-9.84599e-05,0.000316858,0.000206734,-2.6677e-05,-1.22945e-05
1882,0.00051179,0.12352,0.00617123,-0.166846,0.0261442,0.0261442,0.0261442,0.0261442,0.0261442,0.0261442,0.0261442,0.0261442,0.0261442,-0.686633,-0.835368,0.0738558,1.08386,0.12352,0.00617123,-0.166846,-0.0932983,-0.0126857,-0.0178797,0.190145,-0.00770634,-0.0206877,0.0261442,4.54748,33.1089,0.51946,1.00775,-2.041,0.142306,-4.15287,-31.1914,0.456584,3.52016,0.0239509,-0.23862,-4.53408,0.544482,4.55834,-0.0932983,-0.0126857,-0.0178797,0.190145,-0.00770634,-0.0206877,0,0,0,0,0,0,0,0,0,0.00107172,0.0157809,0.00132854,0.0164365,0.000115907,0.0037392,-0.0032564,0.00549038,1.96248e-05,-0.0151922,-0.00532793,-0.00387108
1883,0.00051179,-0.01682,-0.000319116,-0.00628751,0.07112,0.07112,0.07112,0.07112,0.07112,0.07112,0.07112,0.07112,0.07112,-0.92888,-0.905442,-0.458596,1.37585,-0.01682,-0.000319116,-0.00628751,-0.0022928,0.00466934,-0.00711182,0.00334795,0.00577425,-0.00878252,0.07112,0.00432701,-0.000481877,-0.00360452,0.0337564,-0.0252605,0.00129684,0.0389508,0.0425624,-0.00102376,0.0217838,-0.00542981,-0.0525354,-0.0552211,0.00342791,0.019872,-0.0022928,0.00466934,-0.00711182,0.00334795,0.00577425,-0.00878252,0,0,0,0,0,0,0,0,0,-0.000731952,1.13205e-05,0.000619672,-0.000656362,-0.000331605,-0.000609024,1.27704e-05,-0.000232548,0.000266649,0.000598212,0.000235993,-2.56236e-05
1884,0.00051179,0.0199914,0.00229025,0.0149032,0.0689211,0.0689211,0.0689211,0.0689211,0.0689211,0.0689211,0.0689211,0.0689211,0.0689211,-0.818921,0.24102,-0.0445813,0.854816,0.0199914,0.00229025,0.0149032,-0.0141603,-0.00208542,-0.00655063,-0.00106598,0.0145809,0.00017415,0.0689211,-0.271983,-2.16674,-0.116987,-1.26356,-0.326638,0.207825,0.953261,2.47339,-0.0798783,-0.189921,0.0860027,0.298931,1.45119,0.0598713,-1.2671,-0.0141603,-0.00208542,-0.00655063,-0.00106598,0.0145809,0.00017415,0,0,0,0,0,0,0,0,0,-0.000679947,-0.00107644,-0.00065467,0.00235867,-0.000366176,-0.000536059,-5.04426e-05,0.000951628,0.000405632,-0.000345926,5.42078e-05,0.000654506
1885,0.00051179,0.00200208,0.00194007,-0.00629725,0.0108556,0.0108556,0.0108556,0.0108556,0.0108556,0.0108556,0.0108556,0.0108556,0.0108556,-0.984141,0.851852,0.989144,1.63481,0.00200208,0.00194007,-0.00629725,-0.0119368,-0.00318947,0.00144962,0.00207505,-0.0061484,0.00312137,0.0108556,0.0010397,0.00485808,-0.00035169,-0.000589808,-0.000249081,0.000366196,-0.000374651,-0.00661108,-7.92164e-05,-0.00458371,-0.000281986,-0.00186452,0.00323345,-0.0022562,0.00853642,-0.0119368,-0.00318947,0.00144962,0.00207505,-0.0061484,0.00312137,0,0,0,0,0,0,0,0,0,-0.000603631,-4.52131e-05,0.000213852,-0.000422698,-0.000301117,-0.000249264,1.92516e-05,2.83478e-05,0.000249743,0.000440856,-9.26516e-05,1.35982e-05
1886,0.00051179,-0.0527569,0.0048112,0.0223613,0.107124,0.107124,0.107124,0.107124,0.107124,0.107124,0.107124,0.107124,0.107124,-0.857124,0.0874857,0.0992339,0.867273,-0.0527569,0.0048112,0.0223613,0.0103858,-0.00265444,-0.000473695,0.00761846,0.0104712,0.000911132,0.107124,0.181225,1.06562,0.0509275,0.395597,0.509596,0.0412557,-0.28775,-1.52246,0.122388,0.0507122,-0.00637,0.0502537,-0.45112,-0.0759816,0.215135,0.0103858,-0.00265444,-0.000473695,0.00761846,0.0104712,0.000911132,0,0,0,0,0,0,0,0,0,-0.000474684,0.000673576,0.0002563,0.000380068,-0.000310207,0.000226431,0.000365555,6.52603e-05,0.000360496,2.77515e-05,-2.42478e-05,-0.000659829
1887,0.00051179,0.0253334,0.00846529,0.0170512,0.0623743,0.0623743,0.0623743,0.0623743,0.0623743,0.0623743,0.0623743,0.0623743,0.0623743,-0.812374,-0.856254,0.363303,1.23495,0.0253334,0.00846529,0.0170512,-0.00524565,-0.0063714,0.00969626,-0.0132544,-0.0356847,-0.00985163,0.0623743,0.00380959,-0.0668391,0.00437785,-0.0920229,0.00684778,0.000463013,-0.0517551,0.0346579,-0.0125559,-0.119324,-0.0147224,-0.0222775,0.202881,-0.00557962,0.0569814,-0.00524565,-0.0063714,0.00969626,-0.0132544,-0.0356847,-0.00985163,0,0,0,0,0,0,0,0,0,-0.000277318,4.20631e-05,-0.000693378,-0.000566196,-0.000254894,0.000673442,-7.9808e-05,-0.000384467,0.000356667,0.000667789,-0.000119604,-2.79129e-05
1888,0.00051179,-0.00113883,-0.000628145,0.00148574,0.124622,0.124622,0.124622,0.124622,0.124622,0.124622,0.124622,0.124622,0.124622,-0.874622,-0.768976,0.840969,1.43649,-0.00113883,-0.000628145,0.00148574,-0.00175393,-0.00151672,-0.000825632,0.0015561,0.0023148,0.00399787,0.124622,0.000798002,-0.00317726,0.000132926,-0.00150786,0.00159599,0.00033132,3.13603e-05,0.0027201,-0.000289934,-0.00134184,-0.000717581,-0.000685037,0.00347784,-0.00108577,-0.000832063,-0.00175393,-0.00151672,-0.000825632,0.0015561,0.0023148,0.00399787,0,0,0,0,0,0,0,0,0,-0.000533402,-8.49771e-06,-0.000327879,-0.000401656,-0.000336969,0.000314041,2.61273e-06,-5.51194e-06,0.000330247,0.000396713,2.14841e-05,1.08424e-05
1889,0.00051179,-0.0390077,-0.00634885,-0.0141426,0.11284,0.11284,0.11284,0.11284,0.11284,0.11284,0.11284,0.11284,0.11284,-0.86284,-0.858507,-0.0919538,1.22065,-0.0390077,-0.00634885,-0.0141426,0.00477737,0.00410843,0.00905646,-0.00469878,-0.00827819,0.00332052,0.11284,-0.707088,-6.86734,-0.145312,-1.14971,0.0313631,0.299611,-0.0461297,6.87498,-0.0118954,-0.144542,0.0328084,0.0662712,1.3006,0.274231,-0.00599897,0.00477737,0.00410843,0.00905646,-0.00469878,-0.00827819,0.00332052,0,0,0,0,0,0,0,0,0,-0.0009268,-0.0030023,-2.77808e-05,0.00215908,-0.000494743,-0.00138426,0.000426283,0.000756795,0.000472039,0.000927588,-0.000511493,0.00189701
1890,0.00051179,0.0553675,0.0122336,0.0312493,0.073861,0.073861,0.073861,0.073861,0.073861,0.073861,0.073861,0.073861,0.073861,-0.823861,0.738847,0.0692324,1.1088,0.0553675,0.0122336,0.0312493,-0.00890803,0.0094694,0.018696,0.0101883,-0.00242744,0.0121875,0.073861,1.09768,11.163,-0.0905407,-0.633057,-0.915563,0.417437,1.33929,-10.3028,0.0755395,-0.482794,-0.0569498,-0.200739,1.10362,-0.271671,-1.1698,-0.00890803,0.0094694,0.018696,0.0101883,-0.00242744,0.0121875,0,0,0,0,0,0,0,0,0,-0.000112474,0.00438807,-8.26779e-05,0.00489842,-0.000386143,-0.000728035,-0.000627149,-0.00108316,0.000428222,-0.000537092,0.000489385,-0.00235321
1891,0.00051179,0.0225899,-0.0395714,-0.0494256,0.0541296,0.0541296,0.0541296,0.0541296,0.0541296,0.0541296,0.0541296,0.0541296,0.0541296,-0.859327,-0.94587,-0.157372,1.28759,0.0225899,-0.0395714,-0.0494256,-0.0151127,-0.00517283,-0.00491862,0.00270122,-0.0357136,0.0135167,0.0541296,-0.384894,-1.83866,-0.081519,-0.306518,-1.07359,0.0651149,-2.64459,2.88965,-0.00506385,-0.0875257,-0.0295211,-0.345123,0.433615,0.258393,3.03914,-0.0151127,-0.00517283,-0.00491862,0.00270122,-0.0357136,0.0135167,0,0,0,0,0,0,0,0,0,-0.00100845,-0.0018495,0.00079747,-0.000464292,-0.000541979,-0.00166439,0.000138717,-0.000344464,0.000401728,0.00106625,-0.000307882,0.00151008
1892,0.00051179,0.00222874,-0.000643551,-0.0495052,0.115092,0.115092,0.115092,0.115092,0.115092,0.115092,0.115092,0.115092,0.115092,-0.865092,0.689447,-0.148754,1.11618,0.00222874,-0.000643551,-0.0495052,-0.0029854,-0.00103482,0.00648006,0.0198282,-0.0150246,0.00280911,0.115092,-0.77989,-4.16927,0.0461873,0.160581,0.799766,-0.190077,-3.40827,3.36728,-0.0770909,0.337057,-0.000743891,0.217782,-0.496995,0.0617264,3.24,-0.0029854,-0.00103482,0.00648006,0.0198282,-0.0150246,0.00280911,0,0,0,0,0,0,0,0,0,-0.000972234,-0.00301945,-0.00019765,-0.00100126,-0.00021478,0.000649175,0.000608612,-0.000242333,0.000299692,-0.000834712,8.46481e-05,0.0012176
1893,0.00051179,0.00733234,-0.00328219,0.00590446,0.013913,0.013913,0.013913,0.013913,0.013913,0.013913,0.013913,0.013913,0.013913,-0.796925,-0.241023,0.986087,1.29056,0.00733234,-0.00328219,0.00590446,0.0085093,0.00317949,0.00284939,0.00210674,-0.00197019,0.011185,0.013913,0.000724629,-0.00362091,-0.00045123,-0.00155056,-0.000201645,0.000431545,-0.000856185,-0.00350979,-0.00147768,0.00143755,2.70316e-05,0.000317038,0.0033952,-0.00129504,-0.00536532,0.0085093,0.00317949,0.00284939,0.00210674,-0.00197019,0.011185,0,0,0,0,0,0,0,0,0,-0.000699542,2.33777e-05,-0.00011513,-0.000246366,-0.000324572,0.000142412,-1.96466e-05,1.40655e-05,0.000350513,0.000279175,-3.3497e-05,2.6658e-05
1894,0.00051179,-0.0010188,-0.000791341,0.00448496,0.1232,0.1232,0.1232,0.1232,0.1232,0.1232,0.1232,0.1232,0.1232,-0.8732,0.0368389,0.811631,1.19272,-0.0010188,-0.000791341,0.00448496,-0.00159962,-0.00173967,-0.0005053,0.0010493,-0.000358055,0.00507731,0.1232,0.000475124,-0.00376424,0.000239201,-0.00314177,0.000548771,-2.66619e-05,0.00623914,0.00423427,-0.000514852,-0.000162888,-0.000679243,-0.000675485,0.004096,0.0001068,-0.0100486,-0.00159962,-0.00173967,-0.0005053,0.0010493,-0.000358055,0.00507731,0,0,0,0,0,0,0,0,0,-0.000673957,-1.09233e-05,9.29804e-06,-0.000232008,-0.000336492,-2.43027e-05,-2.62862e-06,1.21488e-05,0.000320084,0.000226689,-2.25217e-05,2.06197e-05
1895,0.00051179,-0.000971673,-0.00164905,-0.00729925,0.00500199,0.00500199,0.00500199,0.00500199,0.00500199,0.00500199,0.00500199,0.00500199,0.00500199,-0.890849,0.71052,-0.994998,1.51277,-0.000971673,-0.00164905,-0.00729925,-0.0019886,0.00080649,-0.00111445,-0.00364051,-0.00283377,0.00397508,0.00500199,0.00231965,-0.016687,-0.000326656,0.00208091,-0.000617743,0.000125371,0.00284657,0.0182765,-0.000391485,0.00216582,0.000153865,-0.000202969,-0.00259767,-0.00151924,0.00465565,-0.0019886,0.00080649,-0.00111445,-0.00364051,-0.00283377,0.00397508,0,0,0,0,0,0,0,0,0,-0.000370316,3.09191e-06,-0.000230606,-0.000498304,-0.000323588,0.000235405,-1.87233e-05,0.000102037,0.000293501,0.000488413,-0.000128836,1.37158e-05
1896,0.00051179,-0.00847798,0.00125756,0.00211366,0.123511,0.123511,0.123511,0.123511,0.123511,0.123511,0.123511,0.123511,0.123511,-0.876489,-0.543652,0.56343,1.17526,-0.00847798,0.00125756,0.00211366,-0.00188319,0.00104884,-0.000837579,-0.0024063,0.000283497,0.0063024,0.123511,0.00232871,-0.0306158,0.000261314,0.0020476,-0.00394373,-0.00361719,0.0504841,0.0430375,0.00103749,0.00348122,-0.00107201,0.00774479,-0.00678638,0.00497938,-0.0603426,-0.00188319,0.00104884,-0.000837579,-0.0024063,0.000283497,0.0063024,0,0,0,0,0,0,0,0,0,-0.000519611,-9.7245e-06,-0.000367243,-0.000288488,-0.000337327,0.000380344,-1.87961e-05,1.14222e-06,0.000326551,0.00024394,-9.02739e-06,4.44568e-05
1897,0.00051179,0.00251913,-0.00996723,-0.0228826,0.0565031,0.0565031,0.0565031,0.0565031,0.0565031,0.0565031,0.0565031,0.0565031,0.0565031,-0.943497,0.905775,-0.230662,1.32809,0.00251913,-0.00996723,-0.0228826,-0.00114088,-0.00833767,0.00278499,-0.0133563,-0.0269857,-0.00449758,0.0565031,-0.108161,-0.664381,0.0414667,0.0665307,-0.178314,0.0436215,-0.797117,0.840176,-0.00567185,0.0424928,0.0221661,-0.075186,-0.0990562,0.0565835,0.895186,-0.00114088,-0.00833767,0.00278499,-0.0133563,-0.0269857,-0.00449758,0,0,0,0,0,0,0,0,0,-0.000897788,-0.000458536,-0.000905733,-0.000338729,-0.000230575,0.00123702,-7.16644e-06,0.000197747,0.000241101,0.000802793,-0.000245943,0.000348404
1898,0.00051179,0.00850201,0.0035305,-0.074748,0.0603758,0.0603758,0.0603758,0.0603758,0.0603758,0.0603758,0.0603758,0.0603758,0.0603758,-0.663715,0.387019,0.0396242,0.769332,0.00850201,0.0035305,-0.074748,0.0528655,-0.0371252,0.00550258,-0.00488539,-0.0108554,-0.00312039,0.0603758,1.36633,4.64295,0.52862,3.45145,-0.0688911,-0.0133704,-5.06273,-4.58256,0.46287,0.344751,0.345881,0.37044,-3.79973,0.206509,4.76703,0.0528655,-0.0371252,0.00550258,-0.00488539,-0.0108554,-0.00312039,0,0,0,0,0,0,0,0,0,0.000122644,0.00469533,0.00256709,0.0170304,-6.12084e-05,0.00234786,-0.000110739,0.00647944,-0.000549257,-0.017109,-0.00312919,-0.00138372
1899,0.00051179,-0.000154471,0.000692642,0.00206209,0.112514,0.112514,0.112514,0.112514,0.112514,0.112514,0.112514,0.112514,0.112514,-0.862514,-0.734841,0.591905,1.27839,-0.000154471,0.000692642,0.00206209,0.00150891,-0.000374854,0.000459913,-0.000160392,-0.00189281,0.00652795,0.112514,0.00184722,-0.0170316,0.000587411,-0.00621335,0.000506235,-0.00161744,0.0286576,0.0166798,1.98316e-05,-0.00317953,-0.0018564,-0.000785846,0.00870023,0.00125503,-0.0299338,0.00150891,-0.000374854,0.000459913,-0.000160392,-0.00189281,0.00652795,0,0,0,0,0,0,0,0,0,-0.000450179,4.09004e-06,-0.000451617,-0.000381985,-0.000328803,0.000453743,-1.33934e-05,-4.37547e-05,0.000332505,0.00037041,6.26261e-06,2.62243e-05
1900,0.00051179,-0.00808925,0.0177449,0.0543802,0.0257096,0.0257096,0.0257096,0.0257096,0.0257096,0.0257096,0.0257096,0.0257096,0.0257096,-0.97429,0.883364,0.00223867,1.31513,-0.00808925,0.0177449,0.0543802,-0.00631796,0.00356837,-0.0273545,-0.00885481,-0.0148246,-0.00366951,0.0257096,-0.0062484,0.0407315,-0.0114886,0.0122273,-0.0122146,0.445489,1.32951,-0.0204277,0.0127233,-0.0997667,-0.0535679,0.241184,0.0697945,0.00536951,-1.62508,-0.00631796,0.00356837,-0.0273545,-0.00885481,-0.0148246,-0.00366951,0,0,0,0,0,0,0,0,0,-0.000566281,-5.47573e-05,0.00011171,0.00218889,-0.000277722,-0.000190912,2.74169e-05,-0.000263103,0.000331573,0.00199245,-0.000420822,1.65745e-05
1901,0.00051179,-0.00207492,0.000552963,-0.00362049,0.0538247,0.0538247,0.0538247,0.0538247,0.0538247,0.0538247,0.0538247,0.0538247,0.0538247,-0.946175,-0.35825,-0.794978,1.28669,-0.00207492,0.000552963,-0.00362049,-0.0032598,0.00365423,0.00101968,-0.00801179,-0.000150207,0.00154895,0.0538247,-0.00134884,0.0208616,-0.00170373,0.010291,-0.000680249,0.000126779,0.00466006,-0.0181064,-0.00127936,0.00136514,-0.000988136,-0.0024309,-0.0122091,-0.00166773,0.00139133,-0.0032598,0.00365423,0.00101968,-0.00801179,-0.000150207,0.00154895,0,0,0,0,0,0,0,0,0,-0.00037422,-6.86793e-06,0.000199101,-0.000325605,-0.000294769,-0.000179596,-3.02805e-05,-5.15986e-05,0.000323132,0.000337069,4.02151e-05,1.55813e-05
1902,0.00051179,0.0109525,-0.0299475,0.0414793,0.0365929,0.0365929,0.0365929,0.0365929,0.0365929,0.0365929,0.0365929,0.0365929,0.0365929,-0.963407,-0.30505,-0.0594538,1.0123,0.0109525,-0.0299475,0.0414793,0.0104523,-0.0129262,-0.00103858,0.00332548,-0.00402029,-0.00175866,0.0365929,-0.150824,-1.1874,0.0500394,0.306194,0.0307949,0.087091,0.478302,1.14565,-0.032248,0.0490067,-0.0610537,0.0261218,-0.325253,0.0347298,-0.545903,0.0104523,-0.0129262,-0.00103858,0.00332548,-0.00402029,-0.00175866,0,0,0,0,0,0,0,0,0,-0.000598542,-0.000544563,0.0002109,0.000533066,-0.000341887,0.000160232,1.26834e-05,-0.000357685,0.000416785,0.000327458,-0.000293055,0.000322152
1903,0.00051179,0.0015467,-0.00397843,-0.00127264,0.111308,0.111308,0.111308,0.111308,0.111308,0.111308,0.111308,0.111308,0.111308,-0.888692,0.553958,-0.83999,1.34247,0.0015467,-0.00397843,-0.00127264,-0.00245867,-0.00063383,0.00136213,-0.00159816,-0.00090281,0.00127348,0.111308,1.9744e-05,0.00603218,-0.000890277,0.00475249,0.000155333,0.000736453,-0.00594582,-0.00773421,-0.000888498,-3.6017e-06,-1.96081e-05,0.000351142,-0.000770461,-0.000688836,0.00686731,-0.00245867,-0.00063383,0.00136213,-0.00159816,-0.00090281,0.00127348,0,0,0,0,0,0,0,0,0,-0.000400223,-7.18584e-06,-0.000245447,-0.00040099,-0.000306362,0.000230206,-7.4245e-06,8.09216e-05,0.000312984,0.000421976,-9.01458e-05,7.93198e-06
1904,0.00051179,0.00611356,0.00501827,0.00112516,0.0668315,0.0668315,0.0668315,0.0668315,0.0668315,0.0668315,0.0668315,0.0668315,0.0668315,-0.933168,0.00958444,0.658457,1.14213,0.00611356,0.00501827,0.00112516,-0.00430581,0.000916061,0.000914933,0.00649227,-0.00113703,0.00126219,0.0668315,0.00185664,-0.0207734,-0.000228517,0.00992851,0.000141679,-0.00260497,0.0302615,0.0145182,0.00326527,-0.000408987,-0.000280572,-0.00164587,-0.0145378,0.00467866,-0.0297407,-0.00430581,0.000916061,0.000914933,0.00649227,-0.00113703,0.00126219,0,0,0,0,0,0,0,0,0,-0.000639409,-2.75334e-05,5.10659e-07,-0.000203947,-0.000338132,6.36479e-06,3.35002e-05,1.6417e-05,0.000305407,0.000187046,-3.05931e-05,1.44167e-05
1905,0.00051179,-0.00375342,0.00376558,-0.043718,0.0539623,0.0539623,0.0539623,0.0539623,0.0539623,0.0539623,0.0539623,0.0539623,0.0539623,-0.803962,-0.856481,0.222653,1.19561,-0.00375342,0.00376558,-0.043718,0.0166889,0.0104105,-0.0063153,-0.0281294,-0.0482855,-0.0174599,0.0539623,0.0726313,-2.30017,0.0314642,-0.555543,0.0516286,-0.0757507,1.20705,2.25229,-0.0203633,-0.198312,-0.0756013,-0.0487255,0.750089,0.0367783,-1.1146,0.0166889,0.0104105,-0.0063153,-0.0281294,-0.0482855,-0.0174599,0,0,0,0,0,0,0,0,0,-0.00014092,0.000377202,-0.000453278,-0.00171527,-0.000175739,0.000872025,-0.000311863,-0.000632272,0.000362232,0.000894613,-0.000606595,2.7193e-05
1906,0.00051179,-0.00154586,-0.000595433,-0.00925666,0.0450655,0.0450655,0.0450655,0.0450655,0.0450655,0.0450655,0.0450655,0.0450655,0.0450655,-0.852613,-0.620198,-0.954934,1.4225,-0.00154586,-0.000595433,-0.00925666,-0.00279426,7.19763e-05,0.00109628,-0.00737417,-0.00117134,0.00246976,0.0450655,0.0011998,-0.0063693,-0.000458114,0.00324131,0.000570551,0.000772256,0.000647407,0.00734461,-0.000914427,-0.000523022,2.04798e-06,0.000225663,-0.00212286,-0.00110717,0.00838359,-0.00279426,7.19763e-05,0.00109628,-0.00737417,-0.00117134,0.00246976,0,0,0,0,0,0,0,0,0,-0.000377893,1.85897e-06,0.000254981,-0.00041527,-0.000298077,-0.000258842,-3.16117e-05,-9.3905e-05,0.000341333,0.000433956,8.2212e-05,1.66443e-05
1907,0.00051179,0.0073561,0.00303056,-0.00634062,0.0826548,0.0826548,0.0826548,0.0826548,0.0826548,0.0826548,0.0826548,0.0826548,0.0826548,-0.832655,-0.0604205,-0.39589,0.923956,0.0073561,0.00303056,-0.00634062,0.00134812,-0.000130525,-0.00178112,-0.0121808,0.00271738,0.00646273,0.0826548,-0.00306438,0.0719155,-0.000220887,-0.00480466,-0.000479427,-0.00785594,0.146964,-0.0787921,0.021007,0.00855015,-0.00673508,-0.00215747,-0.00677605,-0.014319,-0.138466,0.00134812,-0.000130525,-0.00178112,-0.0121808,0.00271738,0.00646273,0,0,0,0,0,0,0,0,0,-0.00047759,-7.72017e-06,3.34243e-05,-0.000436801,-0.000320697,-3.69384e-05,4.49921e-05,-2.60659e-05,0.000354439,0.00034043,-1.4111e-05,-3.84201e-05
1908,0.00051179,-0.000724717,-0.00128001,0.00183677,0.0676728,0.0676728,0.0676728,0.0676728,0.0676728,0.0676728,0.0676728,0.0676728,0.0676728,-0.932327,-0.724241,0.847139,1.45307,-0.000724717,-0.00128001,0.00183677,-0.00358085,-0.000614122,-0.00293524,0.00440349,0.00625061,0.00496282,0.0676728,0.00102915,-0.00664533,0.000277825,-0.00204301,0.00166554,0.000333115,0.00232628,0.00570451,-0.000130909,-0.00102134,-0.000576195,-0.000188731,0.00434436,-0.00162868,-0.00397432,-0.00358085,-0.000614122,-0.00293524,0.00440349,0.00625061,0.00496282,0,0,0,0,0,0,0,0,0,-0.000549607,-1.85912e-05,-0.000315664,-0.000379504,-0.000354493,0.000312301,1.55302e-05,1.58949e-05,0.000310034,0.000353483,4.08493e-05,1.0838e-05
1909,0.00051179,0.00494089,-0.00270414,0.00315394,0.0114156,0.0114156,0.0114156,0.0114156,0.0114156,0.0114156,0.0114156,0.0114156,0.0114156,-0.842772,-0.600264,0.988584,1.43104,0.00494089,-0.00270414,0.00315394,-0.00230844,0.00196132,-0.00231297,0.00242795,-0.0031899,0.00667181,0.0114156,0.000911787,-0.00117278,-0.000423513,-0.00116379,0.000144342,0.000411682,-0.000727788,-0.00391245,-0.00134292,9.58925e-05,-0.000186289,0.000765041,0.00377203,-0.00130377,-0.0031912,-0.00230844,0.00196132,-0.00231297,0.00242795,-0.0031899,0.00667181,0,0,0,0,0,0,0,0,0,-0.000637136,-1.28176e-05,-0.000228145,-0.000364196,-0.000330115,0.000243523,-4.09208e-07,-2.59523e-05,0.000345014,0.000345183,-7.80952e-06,2.10059e-05
1910,0.00051179,-0.00370595,0.00361921,-0.00924443,0.091999,0.091999,0.091999,0.091999,0.091999,0.091999,0.091999,0.091999,0.091999,-0.841999,0.00397378,-0.596607,1.03195,-0.00370595,0.00361921,-0.00924443,-0.00534086,0.000331522,0.00167434,0.000703948,-0.00136292,-0.00124951,0.091999,0.000472143,0.0129229,-0.00160234,0.0136167,0.000150215,-0.00213541,0.0337403,-0.0093672,0.0122744,0.00229195,-0.00400848,0.00208621,-0.0195279,-0.00130518,-0.026582,-0.00534086,0.000331522,0.00167434,0.000703948,-0.00136292,-0.00124951,0,0,0,0,0,0,0,0,0,-0.000403412,-3.07532e-05,-4.64369e-06,-0.000314204,-0.00030815,-8.06454e-06,5.84823e-05,-3.39547e-05,0.000355855,0.000309593,-1.97594e-05,-1.9183e-05
1911,0.00051179,0.00260546,-0.00398773,0.00615047,0.0465122,0.0465122,0.0465122,0.0465122,0.0465122,0.0465122,0.0465122,0.0465122,0.0465122,-0.796512,-0.19662,0.820205,1.1601,0.00260546,-0.00398773,0.00615047,0.00456011,2.83774e-05,0.000322482,-0.00594123,-0.00243027,0.00779787,0.0465122,0.000408009,-0.00543356,4.63203e-05,-0.000209987,0.000355554,0.000238776,0.000102378,0.00247254,-0.000875132,0.000469978,-0.00064665,0.000215744,0.00372774,-6.51591e-05,-0.0064686,0.00456011,2.83774e-05,0.000322482,-0.00594123,-0.00243027,0.00779787,0,0,0,0,0,0,0,0,0,-0.000663482,1.80508e-05,-0.000114846,-0.000240428,-0.000328118,0.000115593,-4.08716e-05,5.20483e-06,0.000344396,0.00024604,-3.5974e-05,3.18738e-05
1912,0.00051179,-0.0320437,-0.0208891,-0.00854141,0.0928177,0.0928177,0.0928177,0.0928177,0.0928177,0.0928177,0.0928177,0.0928177,0.0928177,-0.907182,0.623066,-0.252299,1.12909,-0.0320437,-0.0208891,-0.00854141,-0.00731189,-0.00383843,0.00923083,-0.00729655,-0.00328396,0.000717424,0.0928177,-0.240627,0.768681,0.00251252,0.0243304,0.208027,-0.159157,-0.629243,-0.944664,-0.00603421,0.0788936,-0.00279313,0.192021,-0.082335,-0.0601702,0.445763,-0.00731189,-0.00383843,0.00923083,-0.00729655,-0.00328396,0.000717424,0,0,0,0,0,0,0,0,0,-0.000737883,-0.00086963,-0.000493411,-0.00116323,-0.000257427,0.000480152,0.000303411,8.30265e-06,0.000275761,-0.00033603,-6.90735e-05,7.28004e-05
1913,0.00051179,0.00027889,-0.00731516,-0.000907779,0.0735166,0.0735166,0.0735166,0.0735166,0.0735166,0.0735166,0.0735166,0.0735166,0.0735166,-0.823517,-0.0493414,-0.236781,0.8583,0.00027889,-0.00731516,-0.000907779,-0.0132864,0.00429374,0.00286515,0.0126358,0.00683843,0.00786708,0.0735166,-0.0336481,0.661368,0.00126583,0.0100118,-0.0500905,-0.0473236,0.28467,-0.611557,-0.0672327,-0.00537989,-0.00467662,-0.103339,0.00268328,-0.0529824,-0.180423,-0.0132864,0.00429374,0.00286515,0.0126358,0.00683843,0.00786708,0,0,0,0,0,0,0,0,0,-0.000565521,-6.54648e-05,8.00245e-05,-0.000755635,-0.000321383,-2.44288e-05,-0.000103777,2.42394e-05,0.000348747,0.000311051,-2.6214e-06,-5.63688e-05
1914,0.00051179,-0.0345397,-0.007883,0.00296472,0.00178998,0.00178998,0.00178998,0.00178998,0.00178998,0.00178998,0.00178998,0.00178998,0.00178998,-0.940442,-0.99821,-0.44777,1.44269,-0.0345397,-0.007883,0.00296472,0.0034864,0.000904188,-0.0312652,0.00964803,-0.00275996,-0.0361542,0.00178998,0.0205788,-0.176134,8.41096e-05,0.00445188,-0.0711139,0.0198105,-0.041377,0.281787,-0.00174461,0.0117987,0.00133438,-0.107739,-0.00836762,0.0174162,0.146152,0.0034864,0.000904188,-0.0312652,0.00964803,-0.00275996,-0.0361542,0,0,0,0,0,0,0,0,0,-0.00079944,0.00010506,0.000636921,-0.000758124,-0.000328774,-0.000627038,2.42509e-05,-0.000231393,0.000237182,0.000643576,0.000217138,-0.000108956
1915,0.00051179,0.000232607,0.0282927,-0.0149527,0.0429457,0.0429457,0.0429457,0.0429457,0.0429457,0.0429457,0.0429457,0.0429457,0.0429457,-0.957054,0.561245,0.230496,1.13317,0.000232607,0.0282927,-0.0149527,0.00183576,-0.00386656,0.0263313,0.0212828,-0.00509593,-0.01008,0.0429457,0.296894,0.444033,-0.00445472,0.199245,-0.262593,-0.116132,-0.850342,-0.181673,0.0435315,-0.190788,-0.0198226,0.108149,-0.0367491,0.00460601,0.757145,0.00183576,-0.00386656,0.0263313,0.0212828,-0.00509593,-0.01008,0,0,0,0,0,0,0,0,0,-0.00040511,0.00108049,0.000414954,-0.000235111,-0.00028863,-0.000498167,-8.90864e-05,-0.000183293,0.000300296,-0.000662895,-6.58925e-05,-0.000440528
1916,0.00051179,-0.0256405,0.00186884,0.00768596,0.0774144,0.0774144,0.0774144,0.0774144,0.0774144,0.0774144,0.0774144,0.0774144,0.0774144,-0.827414,0.358214,-0.231147,0.930785,-0.0256405,0.00186884,0.00768596,-0.00969459,-0.0169986,-0.00948418,-0.00921759,-0.030122,0.00851777,0.0774144,-0.132232,2.20453,-0.0237752,0.496414,-0.00102605,-0.156926,0.814022,-2.17787,-0.0187313,0.247267,-0.0408499,0.0146008,-0.74555,-0.149224,-0.836308,-0.00969459,-0.0169986,-0.00948418,-0.00921759,-0.030122,0.00851777,0,0,0,0,0,0,0,0,0,-0.000689894,-0.00035127,-0.000562564,-0.00182184,-0.000325168,0.000154826,0.000218619,-0.000507426,0.000292726,0.000157743,-0.000202293,-0.000345167
1917,0.00051179,-0.00519838,-0.00490943,-0.0147901,0.00780904,0.00780904,0.00780904,0.00780904,0.00780904,0.00780904,0.00780904,0.00780904,0.00780904,-0.992191,0.347495,-0.804376,1.32371,-0.00519838,-0.00490943,-0.0147901,-0.00423262,-0.000352011,0.000362724,-0.0113545,-0.00378404,0.00289179,0.00780904,-0.00166856,0.0260838,-0.00216611,0.0134262,0.000859443,0.000724625,0.0122965,-0.0217448,-0.0012333,3.48278e-05,-0.000330644,0.003574,-0.00855164,-0.00216933,-0.00108045,-0.00423262,-0.000352011,0.000362724,-0.0113545,-0.00378404,0.00289179,0,0,0,0,0,0,0,0,0,-0.000368975,-9.00607e-06,-0.000178643,-0.000340562,-0.000318313,0.000153462,-4.24392e-05,4.07682e-05,0.000291944,0.000351436,-8.19151e-05,2.41122e-05
1918,0.00051179,-0.0258812,0.0259439,0.0553947,0.00519197,0.00519197,0.00519197,0.00519197,0.00519197,0.00519197,0.00519197,0.00519197,0.00519197,-0.755192,-0.31185,-0.344476,0.886695,-0.0258812,0.0259439,0.0553947,-0.0207723,-0.00742804,-0.0145324,0.0225668,0.00680704,0.0264532,0.00519197,-0.000778183,0.0216227,-0.00044214,0.00298187,-0.00128889,-0.000533354,0.0710587,0.00554738,0.0172121,0.00751327,-0.00994684,0.00728469,-0.0364391,-0.0157963,-0.133738,-0.0207723,-0.00742804,-0.0145324,0.0225668,0.00680704,0.0264532,0,0,0,0,0,0,0,0,0,-0.000539847,-0.000141081,0.000263667,-0.000628884,-0.000355715,-0.000342369,0.000165565,-1.2612e-05,0.000386126,0.000478227,-1.87859e-05,1.99553e-05
1919,0.00051179,0.00649813,0.00787053,-0.0194988,0.102316,0.102316,0.102316,0.102316,0.102316,0.102316,0.102316,0.102316,0.102316,-0.852316,0.753949,-0.367987,1.19595,0.00649813,0.00787053,-0.0194988,-0.00971282,-0.00426656,0.00222567,-0.00179123,0.0126258,-0.00648753,0.102316,-0.0119748,0.244777,0.0046537,-0.0620284,-0.0075922,-0.0167027,0.231182,-0.243683,0.0260925,-0.101242,0.016905,0.0471589,0.1554,-0.0222902,-0.258842,-0.00971282,-0.00426656,0.00222567,-0.00179123,0.0126258,-0.00648753,0,0,0,0,0,0,0,0,0,-0.000712998,-7.82488e-05,-0.000607423,-0.000732895,-0.000213766,0.000611295,0.000151696,0.000313917,0.000299878,0.000588124,-1.86091e-05,-0.000113699
1920,0.00051179,-0.0212976,0.0025622,-0.00522268,0.0986272,0.0986272,0.0986272,0.0986272,0.0986272,0.0986272,0.0986272,0.0986272,0.0986272,-0.901373,-0.0470113,0.116563,0.910093,-0.0212976,0.0025622,-0.00522268,0.00694962,0.00148547,0.00366762,0.00625023,0.000839247,0.0103032,0.0986272,0.134287,0.625146,-0.0115105,-0.218198,0.363241,0.0304605,-0.20755,-0.96709,0.102008,-0.0293409,-0.0109737,0.0176805,0.244977,-0.0619812,0.195092,0.00694962,0.00148547,0.00366762,0.00625023,0.000839247,0.0103032,0,0,0,0,0,0,0,0,0,-0.000502087,0.000477934,-8.10351e-05,0.000202691,-0.00036099,-1.9215e-05,0.000313042,-4.60737e-05,0.000350915,0.00013859,-5.52713e-05,-0.000486641
1921,0.00051179,0.00242594,-8.07606e-05,0.00445767,0.0589499,0.0589499,0.0589499,0.0589499,0.0589499,0.0589499,0.0589499,0.0589499,0.0589499,-0.94105,0.109057,0.495466,1.06909,0.00242594,-8.07606e-05,0.00445767,-0.00149753,0.00256494,0.000679145,0.00611634,-0.00539748,0.00419718,0.0589499,0.00884427,-0.0860715,-0.000833862,-0.00840793,0.00197812,-0.0101458,0.0707783,0.0816675,0.0161599,-0.0174601,0.000947075,-0.0133158,0.0259488,0.0118143,-0.0619202,-0.00149753,0.00256494,0.000679145,0.00611634,-0.00539748,0.00419718,0,0,0,0,0,0,0,0,0,-0.000600524,-1.59214e-05,8.02561e-05,-0.000243503,-0.000334764,-6.29453e-05,5.8726e-05,-1.29833e-05,0.000297591,0.000148836,-3.15207e-05,2.74022e-05
1922,0.00051179,0.0101746,0.00768928,0.00556666,0.109504,0.109504,0.109504,0.109504,0.109504,0.109504,0.109504,0.109504,0.109504,-0.890496,0.151732,0.467791,1.01727,0.0101746,0.00768928,0.00556666,-0.00139461,0.00281149,6.79344e-05,0.00416679,-0.00653569,0.00424181,0.109504,0.00594075,-0.0886954,-0.000488214,-0.00464495,0.00120175,-0.00891691,0.0780567,0.077319,0.00947316,-0.0237269,0.00011635,-0.0123953,0.0206826,0.0110372,-0.0712281,-0.00139461,0.00281149,6.79344e-05,0.00416679,-0.00653569,0.00424181,0,0,0,0,0,0,0,0,0,-0.000590019,-1.58829e-05,0.000113269,-0.00027088,-0.000335956,-9.00361e-05,2.95861e-05,-2.94701e-05,0.000303611,0.000182391,-3.47232e-05,3.77817e-05
1923,0.00051179,-0.00694829,-0.0113541,-0.0180738,0.101661,0.101661,0.101661,0.101661,0.101661,0.101661,0.101661,0.101661,0.101661,-0.851661,-0.555623,-0.180015,1.03269,-0.00694829,-0.0113541,-0.0180738,-0.00530931,-0.000440164,0.00839444,0.00350869,0.00292513,-0.00725041,0.101661,-0.573265,-0.146866,0.022491,-0.0685325,0.547562,-0.314671,-2.76098,-0.393748,-0.0821606,-0.218452,0.0279344,0.301908,0.298339,-0.0919991,2.47715,-0.00530931,-0.000440164,0.00839444,0.00350869,0.00292513,-0.00725041,0,0,0,0,0,0,0,0,0,-0.000887953,-0.00202001,0.00052225,-0.00223909,-0.000359619,-0.000301742,0.000479597,0.000248854,0.000290424,-0.000823677,5.97415e-05,0.000376609
1924,0.00051179,-0.000271748,0.000484928,-0.00792404,0.0732019,0.0732019,0.0732019,0.0732019,0.0732019,0.0732019,0.0732019,0.0732019,0.0732019,-0.846844,0.404466,-0.926798,1.31897,-0.000271748,0.000484928,-0.00792404,-0.00427547,0.00105469,0.00155678,-0.00242173,0.000141174,-0.00108266,0.0732019,0.0010462,-0.00213345,-0.000449501,0.0027991,-6.10583e-05,0.00103132,-0.00109962,0.00246626,-0.000519263,-0.000295138,-8.84663e-06,0.000355543,-0.00298889,-0.000815,0.00866812,-0.00427547,0.00105469,0.00155678,-0.00242173,0.000141174,-0.00108266,0,0,0,0,0,0,0,0,0,-0.000336401,-6.83725e-06,-0.000170919,-0.000369771,-0.000303293,0.000176971,-5.3958e-06,6.15687e-05,0.000340402,0.000395652,-6.02454e-05,-1.79145e-07
1925,0.00051179,-0.000454064,-0.005773,0.00183721,0.0199936,0.0199936,0.0199936,0.0199936,0.0199936,0.0199936,0.0199936,0.0199936,0.0199936,-0.980006,-0.724965,0.72193,1.41675,-0.000454064,-0.005773,0.00183721,0.000992364,0.000816356,-0.00107896,0.00858336,0.015025,0.0011624,0.0199936,0.00216402,-0.0224119,0.0010379,-0.00539371,0.000733795,-0.00263773,0.0333788,0.0221321,0.00224931,0.00744419,-0.00145268,-0.000289717,0.00372253,0.00171526,-0.0349263,0.000992364,0.000816356,-0.00107896,0.00858336,0.015025,0.0011624,0,0,0,0,0,0,0,0,0,-0.000502639,-3.67968e-06,-0.000374726,-0.000357243,-0.000375623,0.000393269,3.47018e-05,5.53162e-05,0.000293255,0.000320077,8.04069e-05,-5.07328e-06
1926,0.00051179,-0.0052453,-0.00411406,-0.00240912,0.0880739,0.0880739,0.0880739,0.0880739,0.0880739,0.0880739,0.0880739,0.0880739,0.0880739,-0.911926,-0.844925,-0.351849,1.29202,-0.0052453,-0.00411406,-0.00240912,-0.00633726,0.00850987,0.00377107,-0.00713738,0.00157347,-0.000624713,0.0880739,-0.0194717,0.302481,-0.016044,0.102696,-0.0199205,-0.017091,0.184088,-0.277316,0.00911252,0.0342981,-0.01852,-0.0156221,-0.13288,-0.0120993,-0.166057,-0.00633726,0.00850987,0.00377107,-0.00713738,0.00157347,-0.000624713,0,0,0,0,0,0,0,0,0,-0.00076142,-8.68629e-05,0.000665949,-0.000665302,-0.000372047,-0.00074129,5.20578e-05,-0.000343306,0.000287451,0.000532102,0.000173841,-2.14378e-05
1927,0.00051179,0.00207862,-0.00489622,0.00786461,0.0528174,0.0528174,0.0528174,0.0528174,0.0528174,0.0528174,0.0528174,0.0528174,0.0528174,-0.802817,-0.048896,0.814247,1.14451,0.00207862,-0.00489622,0.00786461,0.00395508,-0.000693533,0.00019188,-0.0059047,-0.000293815,0.00814657,0.0528174,0.000338987,-0.00488743,0.000121601,0.000687535,0.000466702,0.000161357,-0.000135838,0.00234211,-0.000801222,0.000193148,-0.000677002,-0.000313264,0.00401553,8.28691e-05,-0.00741551,0.00395508,-0.000693533,0.00019188,-0.0059047,-0.000293815,0.00814657,0,0,0,0,0,0,0,0,0,-0.000673465,1.47577e-05,-3.67469e-05,-0.000227406,-0.000334734,3.10276e-05,-4.02422e-05,1.62195e-05,0.00033807,0.000230939,-2.59276e-05,3.44346e-05
1928,0.00051179,-0.00277364,0.000732903,0.00559994,0.0649689,0.0649689,0.0649689,0.0649689,0.0649689,0.0649689,0.0649689,0.0649689,0.0649689,-0.911929,-0.935031,0.725681,1.49416,-0.00277364,0.000732903,0.00559994,0.00190859,-0.00265496,-0.00569892,0.00278902,0.00283469,0.0101763,0.0649689,0.00130071,-0.00554649,0.000229247,-0.00239653,0.00196191,-0.0004992,0.00645146,0.00635822,4.51934e-05,0.00132748,-0.000111951,-0.00979457,0.000336147,-0.00134344,-0.00225683,0.00190859,-0.00265496,-0.00569892,0.00278902,0.00283469,0.0101763,0,0,0,0,0,0,0,0,0,-0.000420578,-1.11856e-06,-0.000416485,-0.00049849,-0.000350798,0.000392228,-2.99397e-06,1.23454e-05,0.000308044,0.000436509,1.4882e-05,2.69993e-05
1929,0.00051179,0.0270637,-0.0191625,0.00970132,0.0139291,0.0139291,0.0139291,0.0139291,0.0139291,0.0139291,0.0139291,0.0139291,0.0139291,-0.763929,-0.760211,-0.435305,1.16232,0.0270637,-0.0191625,0.00970132,-0.0264269,0.0153083,-0.00836193,0.0216354,-0.0280934,0.00655143,0.0139291,0.00065203,-0.0169268,-0.00142419,0.0231986,0.00285986,0.000188045,-0.0153201,-0.0129968,0.00171472,0.0480378,-0.00849696,-0.00838606,-0.0520739,0.00153382,0.0140048,-0.0264269,0.0153083,-0.00836193,0.0216354,-0.0280934,0.00655143,0,0,0,0,0,0,0,0,0,-0.000669532,-0.000135406,0.000547346,-0.00060058,-0.000422085,-0.000408505,0.000110219,-0.00032409,0.000383444,0.000518842,-4.18137e-05,3.38949e-05
1930,0.00051179,0.0012641,0.0050125,-0.000556499,0.108966,0.108966,0.108966,0.108966,0.108966,0.108966,0.108966,0.108966,0.108966,-0.891034,-0.385936,0.381246,1.04319,0.0012641,0.0050125,-0.000556499,0.000915495,0.00128195,0.000156391,-0.00202663,0.00742088,0.00375523,0.108966,0.01962,-0.315198,-0.0018267,0.0218959,-0.00313253,-0.0276414,0.224114,0.317066,0.00790728,0.108835,0.0109318,-0.00411128,-0.135744,0.0276382,-0.219446,0.000915495,0.00128195,0.000156391,-0.00202663,0.00742088,0.00375523,0,0,0,0,0,0,0,0,0,-0.00051903,3.59741e-05,-0.00029298,-0.000367312,-0.000359559,0.000287533,-3.73002e-05,0.000176445,0.000309713,9.24617e-05,7.08164e-06,9.02639e-05
1931,0.00051179,0.0169791,0.00994017,0.0267739,0.0159622,0.0159622,0.0159622,0.0159622,0.0159622,0.0159622,0.0159622,0.0159622,0.0159622,-0.984038,0.276401,0.429807,1.10881,0.0169791,0.00994017,0.0267739,0.00650539,-0.00385464,-0.00568033,0.00820555,0.00212998,0.000137803,0.0159622,0.0236218,-0.147428,0.00492514,-0.0161326,0.00646193,-0.0231103,0.0163122,0.123987,0.0285888,-0.0702221,-0.00955924,-0.0344537,0.0764145,0.0179643,-0.0086324,0.00650539,-0.00385464,-0.00568033,0.00820555,0.00212998,0.000137803,0,0,0,0,0,0,0,0,0,-0.000561379,5.25317e-05,0.000178745,-0.000284042,-0.000314945,-0.00016804,8.58677e-05,-5.90503e-05,0.000288472,-3.86422e-06,-1.52423e-05,-7.59374e-06
1932,0.00051179,0.0357527,-0.0115221,-0.0332075,0.00827321,0.00827321,0.00827321,0.00827321,0.00827321,0.00827321,0.00827321,0.00827321,0.00827321,-0.991727,-0.482941,0.0260851,1.10337,0.0357527,-0.0115221,-0.0332075,-0.00232129,-0.00650392,-0.0143207,0.0202035,-0.0286309,0.00553507,0.00827321,0.143698,0.610094,0.0192189,-0.174621,-0.0568058,0.147755,1.00534,-0.589041,0.0317145,-0.0151854,-0.0346283,-0.233891,0.201329,-0.0108667,-0.738244,-0.00232129,-0.00650392,-0.0143207,0.0202035,-0.0286309,0.00553507,0,0,0,0,0,0,0,0,0,-0.000562839,0.000490002,3.23961e-05,0.000726206,-0.000389183,9.4754e-05,4.271e-05,-0.000511661,0.000450894,0.000608137,-0.000120931,-0.000243538
1933,0.00051179,0.0647784,0.0476033,-0.054842,0.0016603,0.0016603,0.0016603,0.0016603,0.0016603,0.0016603,0.0016603,0.0016603,0.0016603,-0.99834,-0.140468,0.164686,1.02154,0.0647784,0.0476033,-0.054842,0.0209037,-0.000557711,0.0157785,-0.00509083,-0.0131751,0.0355365,0.0016603,0.108014,0.249407,-0.0112181,-0.254414,0.129749,0.00516864,-0.0200979,-0.443935,0.0923551,0.00257315,-0.00396642,-0.0175605,0.204237,-0.0344824,0.0925004,0.0209037,-0.000557711,0.0157785,-0.00509083,-0.0131751,0.0355365,0,0,0,0,0,0,0,0,0,-0.000529744,0.00039393,-1.315e-05,6.17136e-05,-0.000380391,-0.000104608,0.000185665,-2.47779e-05,0.000329822,0.000147758,-0.000146637,-0.000245386
1934,0.00051179,0.00952516,-2.24616e-05,0.00692352,0.0884483,0.0884483,0.0884483,0.0884483,0.0884483,0.0884483,0.0884483,0.0884483,0.0884483,-0.838448,-0.786227,0.518863,1.2611,0.00952516,-2.24616e-05,0.00692352,0.00154439,-8.9962e-05,0.00119808,-0.0026182,-0.0107767,0.0049144,0.0884483,0.00231649,-0.0175709,0.000577159,-0.0156713,0.00252979,-0.00124341,0.0306445,0.00551591,-0.00186552,-0.00762287,-0.00258091,-0.00255027,0.0233167,0.00212314,-0.0350178,0.00154439,-8.9962e-05,0.00119808,-0.0026182,-0.0107767,0.0049144,0,0,0,0,0,0,0,0,0,-0.000395425,1.19028e-05,-0.000526493,-0.00042883,-0.000310117,0.000531365,-2.98202e-05,-0.000118719,0.000340022,0.000428377,-1.48569e-05,2.77861e-05
1935,0.00051179,0.000874018,-0.000968508,0.000611576,0.0412168,0.0412168,0.0412168,0.0412168,0.0412168,0.0412168,0.0412168,0.0412168,0.0412168,-0.927924,0.264807,0.958783,1.36031,0.000874018,-0.000968508,0.000611576,-0.00173384,-0.000739046,-0.00306642,0.00714326,-0.00139835,0.00451041,0.0412168,0.00116105,0.000100723,-0.000168435,-0.00219837,-2.01552e-05,0.000280142,0.00290478,-0.000954585,7.63517e-05,-0.00111696,-5.6033e-05,-0.000417859,0.00428384,-0.00144754,-0.0030985,-0.00173384,-0.000739046,-0.00306642,0.00714326,-0.00139835,0.00451041,0,0,0,0,0,0,0,0,0,-0.00069984,-1.40674e-05,9.65247e-05,-0.000298632,-0.000328148,-0.000105599,2.48946e-05,1.62277e-05,0.000302657,0.000270769,-3.07716e-05,4.11085e-06
1936,0.00051179,0.0195829,0.0180211,-0.0264124,0.0419224,0.0419224,0.0419224,0.0419224,0.0419224,0.0419224,0.0419224,0.0419224,0.0419224,-0.958078,0.0727965,0.0605906,0.962748,0.0195829,0.0180211,-0.0264124,0.00744942,-0.00123667,-0.0153964,0.00247196,0.00505584,0.0183929,0.0419224,0.0680635,0.37752,0.0158187,0.103492,0.0842398,0.0739721,0.148556,-0.481342,0.0639064,0.0108637,0.00198227,0.179846,-0.132377,-0.0412861,-0.30199,0.00744942,-0.00123667,-0.0153964,0.00247196,0.00505584,0.0183929,0,0,0,0,0,0,0,0,0,-0.000533946,0.000240259,3.54157e-05,0.00018929,-0.000332797,0.000110405,0.000194586,1.89933e-05,0.000353321,0.000396467,5.13878e-05,-0.000251771
1937,0.00051179,-0.000447028,-0.00319594,0.00583511,0.0958927,0.0958927,0.0958927,0.0958927,0.0958927,0.0958927,0.0958927,0.0958927,0.0958927,-0.845893,-0.0323002,0.85012,1.1997,-0.000447028,-0.00319594,0.00583511,-0.000752251,-0.00171667,-0.000689583,-0.00205721,-0.000201562,0.00558414,0.0958927,0.00072439,-0.00305123,5.50225e-05,-0.00131409,0.000378507,0.000202883,0.00281662,0.00311975,-0.000447946,8.35532e-05,-0.000512061,-0.000347906,0.00442648,-0.000227634,-0.00830383,-0.000752251,-0.00171667,-0.000689583,-0.00205721,-0.000201562,0.00558414,0,0,0,0,0,0,0,0,0,-0.000682443,-3.39718e-06,-2.78218e-05,-0.000235497,-0.00033539,1.12053e-05,-1.57837e-05,1.76333e-05,0.000328735,0.00023063,-2.47695e-05,2.35247e-05
1938,0.00051179,0.0692162,0.0276764,-0.0134895,0.054253,0.054253,0.054253,0.054253,0.054253,0.054253,0.054253,0.054253,0.054253,-0.868542,-0.945747,0.203169,1.30003,0.0692162,0.0276764,-0.0134895,0.00573663,-1.37389e-05,-0.0441119,-0.0125036,-0.0151668,-0.00264111,0.054253,0.124012,0.0647344,0.0439565,-0.0547951,0.578426,0.055179,-1.40918,-0.712376,-0.0028453,-0.0565359,-0.0389932,-0.475374,0.0836546,-0.151283,1.89804,0.00573663,-1.37389e-05,-0.0441119,-0.0125036,-0.0151668,-0.00264111,0,0,0,0,0,0,0,0,0,-0.000106387,0.00069435,-0.00082983,-0.000627482,-0.000218952,0.00126926,-3.114e-05,-0.00041392,0.000359781,0.000738154,-0.00012768,-0.000724016
1939,0.00051179,-0.0450852,-0.0155492,0.00171182,0.0429107,0.0429107,0.0429107,0.0429107,0.0429107,0.0429107,0.0429107,0.0429107,0.0429107,-0.957089,0.662924,-0.105533,1.16903,-0.0450852,-0.0155492,0.00171182,0.0148066,-0.0096905,0.000586403,-0.0343463,-0.0119624,-0.00920171,0.0429107,-0.437112,-3.12575,0.0294665,-0.000757365,0.46876,0.0790871,-0.0211159,2.70207,-0.0220508,0.180244,-0.0243218,-0.137792,-0.163938,0.0931434,0.157196,0.0148066,-0.0096905,0.000586403,-0.0343463,-0.0119624,-0.00920171,0,0,0,0,0,0,0,0,0,-0.000732921,-0.00165604,-0.000242399,0.0006717,-0.000286454,0.000440159,0.000173508,-0.00011448,0.000385404,0.000125034,-0.000248362,0.000875202
1940,0.00051179,0.00217925,0.00302825,-0.00661891,0.0652654,0.0652654,0.0652654,0.0652654,0.0652654,0.0652654,0.0652654,0.0652654,0.0652654,-0.934735,-0.133683,-0.608982,1.12359,0.00217925,0.00302825,-0.00661891,-0.0036907,0.00274392,0.00184326,-0.00699526,0.000180755,-0.00133181,0.0652654,-0.00182693,0.0330221,-0.00288253,0.0140708,-0.000789194,-0.00457351,0.0286208,-0.0344121,0.0049587,0.00129642,-0.00458107,-0.000911008,-0.0183954,-0.0024966,-0.0210909,-0.0036907,0.00274392,0.00184326,-0.00699526,0.000180755,-0.00133181,0,0,0,0,0,0,0,0,0,-0.000402711,-1.44544e-05,7.53009e-05,-0.000322054,-0.000307405,-7.66871e-05,2.95099e-06,-3.41635e-05,0.000330918,0.000294751,-9.83959e-06,-6.00831e-06
1941,0.00051179,-0.00268017,-0.0167424,0.00439882,0.0379922,0.0379922,0.0379922,0.0379922,0.0379922,0.0379922,0.0379922,0.0379922,0.0379922,-0.887749,-0.962008,-0.594574,1.43773,-0.00268017,-0.0167424,0.00439882,0.00349029,0.00394881,-0.00602011,0.0040706,-0.00430538,-0.00855659,0.0379922,0.00121965,0.00577248,-0.000379138,-0.000327878,-0.00799228,0.00130982,0.000331515,0.00489997,-0.000170367,0.0218375,0.000527698,-0.0243909,-0.00476722,0.0028214,0.0196605,0.00349029,0.00394881,-0.00602011,0.0040706,-0.00430538,-0.00855659,0,0,0,0,0,0,0,0,0,-0.00067395,2.02324e-05,0.000490853,-0.000624677,-0.000327731,-0.000455157,1.61839e-05,-0.000167842,0.000285164,0.000577574,0.000130065,-3.19932e-05
1942,0.00051179,0.00205952,-0.00204655,-6.94199e-05,0.0913465,0.0913465,0.0913465,0.0913465,0.0913465,0.0913465,0.0913465,0.0913465,0.0913465,-0.841347,-0.822194,-0.785259,1.41439,0.00205952,-0.00204655,-6.94199e-05,-0.00246812,0.00240676,0.00267802,-0.000852522,-0.000775876,0.00156258,0.0913465,0.00112827,0.000666515,-0.000797145,0.00347682,-0.000491336,0.000676963,-0.00829985,-0.0022347,-0.00060861,0.00253417,-0.00046425,-0.00083019,-0.00396443,0.000901453,0.00919946,-0.00246812,0.00240676,0.00267802,-0.000852522,-0.000775876,0.00156258,0,0,0,0,0,0,0,0,0,-0.000513814,-6.31047e-06,0.00033979,-0.000484808,-0.000316942,-0.000323694,-6.91687e-06,-0.000134235,0.000328928,0.000518358,0.000121834,1.2709e-05
1943,0.00051179,0.034986,-0.00133693,0.0138496,0.0354646,0.0354646,0.0354646,0.0354646,0.0354646,0.0354646,0.0354646,0.0354646,0.0354646,-0.964535,0.493854,0.0346818,1.08417,0.034986,-0.00133693,0.0138496,0.00575891,0.00342567,-0.0208315,0.0147136,0.0134522,-0.0019149,0.0354646,0.201714,1.11242,0.000226684,0.169286,-0.106842,0.17755,1.24286,-1.04056,0.0479905,-0.0180264,0.0142836,-0.256936,-0.149922,-0.0300201,-0.999776,0.00575891,0.00342567,-0.0208315,0.0147136,0.0134522,-0.0019149,0,0,0,0,0,0,0,0,0,-0.00054425,0.000762469,9.76629e-06,0.00119227,-0.00029006,2.67572e-05,3.86262e-05,0.000182973,0.000440836,0.000374912,9.43852e-05,-0.00043457
1944,0.00051179,-0.0014956,0.00708276,0.01114,0.117312,0.117312,0.117312,0.117312,0.117312,0.117312,0.117312,0.117312,0.117312,-0.882688,-0.262563,0.144619,0.932197,-0.0014956,0.00708276,0.01114,0.0126248,0.0100984,0.000383249,-0.00206929,-0.00623974,-0.000472367,0.117312,0.315169,1.38123,-0.0831825,-0.700658,0.182916,-0.050623,-1.00758,-1.56265,0.115893,-0.027975,0.0199206,-0.0997966,0.72155,-0.0601,1.09624,0.0126248,0.0100984,0.000383249,-0.00206929,-0.00623974,-0.000472367,0,0,0,0,0,0,0,0,0,-0.000423439,0.0011993,-0.000509004,-0.000194906,-0.000417823,-0.000221836,0.000129453,0.000133933,0.000342824,-0.000307492,2.87618e-06,-0.00074253
1945,0.00051179,0.108126,-0.145086,0.0709211,0.0274798,0.0274798,0.0274798,0.0274798,0.0274798,0.0274798,0.0274798,0.0274798,0.0274798,-0.655396,0.205401,-0.0725202,0.690646,0.108126,-0.145086,0.0709211,-0.0167499,0.0407622,0.0241246,0.0532258,0.011026,-0.0437928,0.0274798,-0.901605,2.68417,-0.686521,-2.14872,-3.77809,-0.108835,0.158131,0.985794,-0.776972,-1.23991,0.0662542,0.477788,3.53372,-0.087432,-0.70684,-0.0167499,0.0407622,0.0241246,0.0532258,0.011026,-0.0437928,0,0,0,0,0,0,0,0,0,-0.00104035,-0.00254563,-0.00349682,0.00658103,-0.000685329,-0.00296077,-0.00157259,0.00407988,-5.6088e-05,-0.00742813,-0.00330708,0.00139002
1946,0.00051179,0.00630694,-0.0219566,0.00585505,0.0470713,0.0470713,0.0470713,0.0470713,0.0470713,0.0470713,0.0470713,0.0470713,0.0470713,-0.797071,0.946372,0.422288,1.30739,0.00630694,-0.0219566,0.00585505,-0.00110821,-0.00416663,0.0031977,0.00701802,0.0117878,-0.00337518,0.0470713,3.995e-05,0.0430845,-0.00124364,0.00966869,0.0143338,0.00335525,-0.137651,-0.0637252,-0.00526501,0.0630769,0.00480777,-0.0482039,-0.050789,-0.0113887,0.18,-0.00110821,-0.00416663,0.0031977,0.00701802,0.0117878,-0.00337518,0,0,0,0,0,0,0,0,0,-0.000273757,1.09038e-05,0.000538313,-0.00068038,-0.000417942,-0.000592415,2.50101e-05,0.000275381,0.000335693,0.000745909,-0.000109426,-5.75741e-05
1947,0.00051179,0.000914349,0.00649401,0.00664358,0.00252007,0.00252007,0.00252007,0.00252007,0.00252007,0.00252007,0.00252007,0.00252007,0.00252007,-0.99748,-0.784579,-0.919297,1.56705,0.000914349,0.00649401,0.00664358,-0.00351076,-0.000414774,0.00449247,-0.00723523,0.00956162,0.00086476,0.00252007,0.00226893,-0.0130011,-0.00108706,0.00397125,-0.000678387,0.00118465,-0.00639672,0.0127651,-0.00120759,-0.00650767,-6.53369e-05,0.00382742,-0.0039576,-0.00232529,-0.00407429,-0.00351076,-0.000414774,0.00449247,-0.00723523,0.00956162,0.00086476,0,0,0,0,0,0,0,0,0,-0.000439264,6.65067e-06,0.000297253,-0.000459504,-0.000255907,-0.000312271,-2.93543e-05,-7.43737e-05,0.000255004,0.000516275,0.000169336,5.55719e-06
1948,0.00051179,0.0359116,0.0149246,-0.0932226,0.0235052,0.0235052,0.0235052,0.0235052,0.0235052,0.0235052,0.0235052,0.0235052,0.0235052,-0.725556,-0.630855,-0.0764948,0.9645,0.0359116,0.0149246,-0.0932226,0.299096,0.0149187,0.173434,-0.0410039,-0.00450557,-0.0630409,0.0235052,-3.52679,-39.0152,0.148606,1.99492,3.2568,-0.111948,-6.36763,35.7225,-0.716595,-1.28339,0.00852911,-0.180908,-0.726446,-0.550943,6.64176,0.299096,0.0149187,0.173434,-0.0410039,-0.00450557,-0.0630409,0,0,0,0,0,0,0,0,0,-0.00175563,-0.0108316,0.000740938,0.0090567,-0.000353927,0.000894313,0.00151887,0.000370905,7.11232e-05,-0.00844184,-0.000330669,0.00223694
1949,0.00051179,-0.00421788,-0.000875671,-0.00266654,0.0490237,0.0490237,0.0490237,0.0490237,0.0490237,0.0490237,0.0490237,0.0490237,0.0490237,-0.915238,-0.464719,-0.950976,1.39928,-0.00421788,-0.000875671,-0.00266654,-0.0062042,-0.000394277,0.00213974,-0.0109154,0.000524065,-0.00116953,0.0490237,0.00165607,-0.00631673,-0.000575773,0.00279041,0.000449979,0.000884183,2.93203e-05,0.0100846,-0.0014512,-0.00117367,1.68085e-05,0.000141562,-0.000741066,-0.00161642,0.00249566,-0.0062042,-0.000394277,0.00213974,-0.0109154,0.000524065,-0.00116953,0,0,0,0,0,0,0,0,0,-0.00034368,-9.05584e-09,0.000204433,-0.000359468,-0.000288988,-0.000214133,-3.91015e-05,-5.84313e-05,0.000327073,0.000389707,6.384e-05,8.80182e-06
1950,0.00051179,0.00593585,-0.0131285,0.00220017,0.104579,0.104579,0.104579,0.104579,0.104579,0.104579,0.104579,0.104579,0.104579,-0.854579,0.253479,0.275141,0.932877,0.00593585,-0.0131285,0.00220017,0.00365902,0.00789864,-0.00084426,0.00511777,-0.0140799,0.0082495,0.104579,0.0461859,-0.715737,0.0125076,-0.187421,0.0270733,-0.0538628,0.318479,0.682728,0.0407888,-0.157461,-0.0291112,-0.0828667,0.35801,0.0434101,-0.237812,0.00365902,0.00789864,-0.00084426,0.00511777,-0.0140799,0.0082495,0,0,0,0,0,0,0,0,0,-0.000492506,7.91351e-05,0.000298749,-0.000665953,-0.000310743,-9.46871e-05,5.9443e-05,-0.000312227,0.00029248,0.000118883,-0.000119684,8.82082e-05
1951,0.00051179,0.00307605,-0.00468651,0.0068702,0.00541323,0.00541323,0.00541323,0.00541323,0.00541323,0.00541323,0.00541323,0.00541323,0.00541323,-0.994587,0.172364,-0.55882,1.15377,0.00307605,-0.00468651,0.0068702,-0.0034556,0.000154909,0.00360007,0.000743845,-0.00257714,0.00525818,0.00541323,-0.00564723,0.0589639,-0.00170886,-0.0287685,-0.000510599,-0.00869472,0.0230968,-0.0615293,-0.00714164,0.015121,-0.00466656,-0.00229937,0.0183341,-0.0036886,-0.0276677,-0.0034556,0.000154909,0.00360007,0.000743845,-0.00257714,0.00525818,0,0,0,0,0,0,0,0,0,-0.000421844,-2.94399e-05,-0.000106295,-0.000319267,-0.000311786,9.07556e-05,-1.59147e-05,-4.85029e-05,0.000306219,0.000268321,-2.39341e-05,2.39222e-05
1952,0.00051179,-0.00301634,0.0006769,-0.00958215,0.0125648,0.0125648,0.0125648,0.0125648,0.0125648,0.0125648,0.0125648,0.0125648,0.0125648,-0.799387,0.642807,-0.987435,1.42381,-0.00301634,0.0006769,-0.00958215,0.000320635,0.00196466,-0.00417591,-0.00235991,0.00189591,0.000932739,0.0125648,0.00119098,-0.00878415,-7.33361e-05,0.00330643,-0.000348267,0.00032147,-0.00327999,0.0121488,-9.2851e-05,0.00141739,0.000421698,0.000203377,-0.00540073,-0.000956755,0.0126588,0.000320635,0.00196466,-0.00417591,-0.00235991,0.00189591,0.000932739,0,0,0,0,0,0,0,0,0,-0.000358053,8.6717e-06,-0.000221082,-0.000491468,-0.000300163,0.000239996,-1.11501e-05,0.000105166,0.000343703,0.000452924,-8.19899e-05,9.93574e-07
1953,0.00051179,-0.0021307,0.00306577,-0.000711344,0.106019,0.106019,0.106019,0.106019,0.106019,0.106019,0.106019,0.106019,0.106019,-0.893981,-0.75781,0.747627,1.39012,-0.0021307,0.00306577,-0.000711344,0.00099256,-0.00187796,0.000193585,0.00332909,0.00484938,0.004412,0.106019,0.000757471,-0.00798738,0.000488408,-0.00346442,0.00142325,-0.000213929,0.0092029,0.00869483,-0.000444608,-0.00427414,-0.0010451,-0.00104976,0.00467279,-0.0009082,-0.0074418,0.00099256,-0.00187796,0.000193585,0.00332909,0.00484938,0.004412,0,0,0,0,0,0,0,0,0,-0.000500426,-6.40209e-07,-0.000370496,-0.000386958,-0.000343377,0.000356601,5.03204e-06,6.10405e-06,0.000321977,0.000386755,3.19388e-05,8.12865e-06
1954,0.00051179,-0.00599688,-0.0114606,0.0104351,0.023426,0.023426,0.023426,0.023426,0.023426,0.023426,0.023426,0.023426,0.023426,-0.976574,0.0241149,0.495781,1.09548,-0.00599688,-0.0114606,0.0104351,-0.0066513,0.000356487,9.6513e-05,0.00576473,-0.00438764,0.00204922,0.023426,0.0111352,-0.0726154,-0.000637285,-0.0145796,0.0028579,-0.0117678,0.0550973,0.0757543,0.0219557,-0.00910992,0.00150847,-0.0126337,0.0351501,0.0125911,-0.0528988,-0.0066513,0.000356487,9.6513e-05,0.00576473,-0.00438764,0.00204922,0,0,0,0,0,0,0,0,0,-0.000604048,-3.16321e-05,1.90091e-05,-0.000236785,-0.000339294,-2.18171e-05,8.45505e-05,5.51724e-06,0.000295475,0.000120072,-3.4309e-05,1.91501e-05
1955,0.00051179,-0.0301828,-0.0298531,0.000911951,0.0626865,0.0626865,0.0626865,0.0626865,0.0626865,0.0626865,0.0626865,0.0626865,0.0626865,-0.812687,-0.354786,-0.244631,0.919879,-0.0301828,-0.0298531,0.000911951,-0.0124135,0.0161748,-0.024894,-0.00329144,0.0324961,-0.00281274,0.0626865,-0.061459,1.9722,0.00576747,-0.28785,0.008666,-0.0999785,1.69761,-1.95069,-0.0145428,-0.211898,0.0143052,-0.00137993,0.5296,-0.131356,-1.69714,-0.0124135,0.0161748,-0.024894,-0.00329144,0.0324961,-0.00281274,0,0,0,0,0,0,0,0,0,-0.000659652,-0.000108738,0.000518202,-0.00168007,-0.000325883,-0.000298779,0.000171454,0.000326767,0.000325657,0.000431344,0.000141247,-0.000410217
1956,0.00051179,-0.000747282,-0.00544094,-0.00241262,0.0942184,0.0942184,0.0942184,0.0942184,0.0942184,0.0942184,0.0942184,0.0942184,0.0942184,-0.905782,0.793691,-0.624805,1.35675,-0.000747282,-0.00544094,-0.00241262,-0.00218435,-0.00235159,0.00202608,-0.000356741,-0.00427706,-0.000195405,0.0942184,0.000293389,0.0225217,-0.00176089,0.0141356,0.00260967,-0.000915896,0.0123587,-0.0243841,0.0023386,-0.0188363,0.000809894,0.0035842,0.0101417,-0.000468474,-0.0135303,-0.00218435,-0.00235159,0.00202608,-0.000356741,-0.00427706,-0.000195405,0,0,0,0,0,0,0,0,0,-0.000581279,-8.79368e-06,-0.00043458,-0.000549375,-0.000290925,0.000393455,1.05704e-05,0.00012602,0.000275873,0.000560476,-0.000160692,-2.65826e-06
1957,0.00051179,0.000629447,-0.00962876,0.00828091,0.0304164,0.0304164,0.0304164,0.0304164,0.0304164,0.0304164,0.0304164,0.0304164,0.0304164,-0.969584,-0.94926,0.663215,1.51031,0.000629447,-0.00962876,0.00828091,-0.00203731,0.00228012,-0.00290987,0.00317948,0.00761777,0.0142629,0.0304164,0.00177576,-0.00663378,0.000499971,-0.00742643,0.00484095,-0.00153725,0.0135107,0.00116338,3.7415e-05,0.0167355,0.000108118,-0.0141634,0.000319664,-0.000360783,-0.00762819,-0.00203731,0.00228012,-0.00290987,0.00317948,0.00761777,0.0142629,0,0,0,0,0,0,0,0,0,-0.000381835,-2.07587e-05,-0.000470322,-0.000526384,-0.000377888,0.000498123,-3.36638e-06,4.98161e-05,0.00027933,0.000481912,2.74428e-05,5.00595e-05
1958,0.00051179,0.011734,-0.0287025,-0.00127923,0.0551392,0.0551392,0.0551392,0.0551392,0.0551392,0.0551392,0.0551392,0.0551392,0.0551392,-0.694861,-0.126219,-0.03512,0.707104,0.011734,-0.0287025,-0.00127923,-0.00996856,-0.016829,0.0223561,-0.000759661,-0.00303605,0.00450829,0.0551392,-0.205871,-0.0241899,0.145133,0.911976,-1.26913,0.0429885,-2.6189,1.28158,-0.232478,0.445601,-0.123728,1.02682,-1.32887,-0.0657734,1.59336,-0.00996856,-0.016829,0.0223561,-0.000759661,-0.00303605,0.00450829,0,0,0,0,0,0,0,0,0,-0.000665762,-0.000490342,0.000784693,0.0030557,-0.000271285,0.00049835,-0.000577332,-0.00216569,0.000323839,-0.00240226,0.000898052,0.000282531
1959,0.00051179,0.00187874,0.00179639,-0.000579059,0.122231,0.122231,0.122231,0.122231,0.122231,0.122231,0.122231,0.122231,0.122231,-0.872231,-0.593706,0.451909,1.14782,0.00187874,0.00179639,-0.000579059,-0.00219005,0.00106829,0.000538733,-0.00675159,-0.00168003,0.00858478,0.122231,0.00630482,-0.112418,0.00118447,-0.0110651,-0.0131532,-0.0111584,0.122687,0.123692,-0.00375991,0.0182873,-0.000938336,0.0327863,-0.00901866,0.0152425,-0.154894,-0.00219005,0.00106829,0.000538733,-0.00675159,-0.00168003,0.00858478,0,0,0,0,0,0,0,0,0,-0.000465132,4.61723e-07,-0.000444705,-0.000326633,-0.000332588,0.000467233,-7.26696e-05,-1.24841e-05,0.000320293,0.000220436,-1.36996e-05,9.90241e-05
1960,0.00051179,0.000263032,0.00276038,-0.00612641,0.0477699,0.0477699,0.0477699,0.0477699,0.0477699,0.0477699,0.0477699,0.0477699,0.0477699,-0.95223,0.794215,-0.58766,1.37217,0.000263032,0.00276038,-0.00612641,0.000916255,2.45869e-05,0.000323828,-0.00265963,-0.0129085,0.00190305,0.0477699,-0.00164358,0.0384471,-0.00237804,0.00924482,0.00219614,-0.00297776,0.0233214,-0.0409063,0.00380812,-0.0289666,0.00132228,0.00404106,0.0169613,-0.00193838,-0.0212361,0.000916255,2.45869e-05,0.000323828,-0.00265963,-0.0129085,0.00190305,0,0,0,0,0,0,0,0,0,-0.000601791,-4.08184e-06,-0.000466697,-0.000556119,-0.000306064,0.000443162,5.29726e-06,9.31902e-05,0.000250168,0.00052958,-0.000209053,-6.21831e-07
1961,0.00051179,0.0017654,-5.87318e-05,-0.002174,0.0183416,0.0183416,0.0183416,0.0183416,0.0183416,0.0183416,0.0183416,0.0183416,0.0183416,-0.952439,0.708865,0.981658,1.54055,0.0017654,-5.87318e-05,-0.002174,-0.00366746,-0.00228866,-0.00186731,0.00592442,-0.00425366,0.00598255,0.0183416,0.00109734,0.00145734,-0.000295572,-0.00161694,-0.000363932,0.000457421,-0.00133912,-0.00285881,-0.000116186,-0.000938675,-7.21449e-05,-0.000368524,0.00261435,-0.00191503,0.00388165,-0.00366746,-0.00228866,-0.00186731,0.00592442,-0.00425366,0.00598255,0,0,0,0,0,0,0,0,0,-0.000631385,-2.12802e-05,0.000204336,-0.000386334,-0.000311697,-0.000230178,2.06116e-05,2.85456e-05,0.000274315,0.000372236,-7.18036e-05,1.1908e-05
1962,0.00051179,-4.42564e-06,-0.0123592,0.0193384,0.0248557,0.0248557,0.0248557,0.0248557,0.0248557,0.0248557,0.0248557,0.0248557,0.0248557,-0.975144,0.0990563,0.472612,1.08815,-4.42564e-06,-0.0123592,0.0193384,-0.00434249,0.000113821,-0.000554966,0.00572152,-0.00349542,0.00261048,0.0248557,0.0130158,-0.084816,0.000666685,-0.0244236,0.00514581,-0.0141352,0.0518245,0.0796746,0.0240512,-0.0226471,-0.000807059,-0.0211942,0.0594298,0.0141135,-0.0499687,-0.00434249,0.000113821,-0.000554966,0.00572152,-0.00349542,0.00261048,0,0,0,0,0,0,0,0,0,-0.000595003,-2.02911e-05,7.0829e-05,-0.000254717,-0.000332886,-6.3024e-05,8.52057e-05,-1.54854e-05,0.000292845,0.000107816,-2.75394e-05,1.99624e-05
1963,0.00051179,-0.000417009,-0.0013936,0.0101901,0.12469,0.12469,0.12469,0.12469,0.12469,0.12469,0.12469,0.12469,0.12469,-0.87531,0.455696,0.413728,1.07005,-0.000417009,-0.0013936,0.0101901,-0.0016394,0.00013851,-0.00230314,0.00144815,-0.00649433,0.010868,0.12469,0.0106116,-0.201434,0.000646122,-0.0411169,-0.0112659,-0.0195005,0.190929,0.213117,-0.00427099,-0.064485,-0.0055771,0.0123001,0.106996,0.0232692,-0.213419,-0.0016394,0.00013851,-0.00230314,0.00144815,-0.00649433,0.010868,0,0,0,0,0,0,0,0,0,-0.000506647,-1.62352e-06,0.000333997,-0.00040494,-0.000337267,-0.000326151,-6.05988e-05,-8.12426e-05,0.000289395,0.000186904,-3.94717e-05,0.000124202
1964,0.00051179,-0.00113953,0.00291309,-0.00480073,0.0629125,0.0629125,0.0629125,0.0629125,0.0629125,0.0629125,0.0629125,0.0629125,0.0629125,-0.937088,-0.111138,-0.786361,1.22835,-0.00113953,0.00291309,-0.00480073,-0.00425579,0.00162698,0.00152886,-0.00619819,-0.00209804,-0.000203385,0.0629125,-0.0013759,0.0196445,-0.00182258,0.0108319,-0.000348145,-1.43237e-05,0.00339241,-0.0181568,-0.000709014,0.00109722,-0.00132982,0.000123249,-0.0148422,-0.0013514,0.00128507,-0.00425579,0.00162698,0.00152886,-0.00619819,-0.00209804,-0.000203385,0,0,0,0,0,0,0,0,0,-0.00034444,-1.18965e-05,6.00153e-05,-0.000313906,-0.000302279,-6.19714e-05,-1.82741e-05,-2.54671e-05,0.000329651,0.000329051,-8.81144e-06,8.488e-06
1965,0.00051179,-0.00780457,-0.00354615,0.00246481,0.0178838,0.0178838,0.0178838,0.0178838,0.0178838,0.0178838,0.0178838,0.0178838,0.0178838,-0.982116,-0.317601,0.561192,1.17489,-0.00780457,-0.00354615,0.00246481,0.00509522,-0.000449471,-0.00278563,0.00712644,0.000331329,-0.00118864,0.0178838,0.00773491,-0.0666337,-0.00180434,0.012655,-0.00190922,-0.00834316,0.0565628,0.0763475,0.0153515,0.0193588,0.00335812,-0.00168495,-0.0284677,0.0101855,-0.0573426,0.00509522,-0.000449471,-0.00278563,0.00712644,0.000331329,-0.00118864,0,0,0,0,0,0,0,0,0,-0.00058458,1.30296e-05,-0.000208441,-0.000218635,-0.000363404,0.000185903,6.12688e-05,5.66295e-05,0.0003056,0.000107347,-1.97351e-05,-6.13689e-06
1966,0.00051179,-0.0053114,-0.00286202,-0.00288877,0.0904902,0.0904902,0.0904902,0.0904902,0.0904902,0.0904902,0.0904902,0.0904902,0.0904902,-0.90951,-0.643092,0.582819,1.25716,-0.0053114,-0.00286202,-0.00288877,0.00179332,-3.88175e-05,-0.00171519,0.00201453,0.0038842,0.0032588,0.0904902,0.0029036,-0.0290806,0.000711508,-0.00284521,-0.00451661,-0.00421562,0.0449601,0.0389086,0.00286375,0.00711552,-0.00170232,0.00894057,-0.00140829,0.00499367,-0.0510119,0.00179332,-3.88175e-05,-0.00171519,0.00201453,0.0038842,0.0032588,0,0,0,0,0,0,0,0,0,-0.00048662,2.9142e-06,-0.000410897,-0.000334335,-0.000349725,0.000417623,3.821e-06,8.99543e-07,0.000318363,0.000275027,2.09193e-05,2.0692e-05
1967,0.00051179,0.00755395,0.00493013,-0.00065396,0.0886473,0.0886473,0.0886473,0.0886473,0.0886473,0.0886473,0.0886473,0.0886473,0.0886473,-0.911353,-0.0148535,0.525676,1.0522,0.00755395,0.00493013,-0.00065396,-0.00239987,0.00242198,0.0011641,0.00534821,-0.00272321,0.00372713,0.0886473,0.00481845,-0.0585986,-0.00116979,0.0122091,0.000288329,-0.00575246,0.0512333,0.0507563,0.00985221,-0.00205442,0.00178768,-0.00425453,-0.0150848,0.00830994,-0.0463248,-0.00239987,0.00242198,0.0011641,0.00534821,-0.00272321,0.00372713,0,0,0,0,0,0,0,0,0,-0.000612669,-2.21256e-05,-8.87895e-06,-0.00021733,-0.000341499,2.14008e-05,4.17836e-05,2.48157e-05,0.000307381,0.000171447,-3.4171e-05,2.59668e-05
1968,0.00051179,0.00508332,-0.0197248,0.0383174,0.100491,0.100491,0.100491,0.100491,0.100491,0.100491,0.100491,0.100491,0.100491,-0.850491,-0.398463,0.0355836,0.939879,0.00508332,-0.0197248,0.0383174,0.000621229,-0.000480607,0.0105981,-0.00518081,-0.00273931,-0.00623295,0.100491,0.353097,2.80729,-0.0586815,-0.925987,-0.130752,0.315261,2.21826,-2.68162,0.071018,0.0275029,-0.100258,-0.197314,0.918209,-0.094337,-2.05927,0.000621229,-0.000480607,0.0105981,-0.00518081,-0.00273931,-0.00623295,0,0,0,0,0,0,0,0,0,-0.000429131,0.00140053,-0.00034028,0.00348841,-0.000398869,-0.00025134,-3.88739e-05,-0.000842605,0.000459157,-0.000229822,-0.000187366,-0.00087091
1969,0.00051179,0.088776,-0.0149378,0.0213083,0.0150844,0.0150844,0.0150844,0.0150844,0.0150844,0.0150844,0.0150844,0.0150844,0.0150844,-0.765084,-0.731899,-0.275741,1.0941,0.088776,-0.0149378,0.0213083,-0.0729557,0.0140417,0.0170275,0.0364479,-0.0287346,0.0158289,0.0150844,0.00164558,-0.00713484,-0.00263154,0.251506,0.0211314,-0.0049987,0.793508,-0.102773,0.0293186,0.114442,-0.0324112,0.0558992,-0.351011,-0.0421718,-0.870715,-0.0729557,0.0140417,0.0170275,0.0364479,-0.0287346,0.0158289,0,0,0,0,0,0,0,0,0,-0.000793524,-0.000319758,0.000478994,-0.00153264,-0.000482315,-0.000364892,0.000365625,-0.000483584,0.00038632,0.00165293,-0.000127874,-9.49226e-05
1970,0.00051179,0.0115523,-4.51133e-05,-0.0236626,0.0673508,0.0673508,0.0673508,0.0673508,0.0673508,0.0673508,0.0673508,0.0673508,0.0673508,-0.817351,0.00610165,-0.197538,0.840905,0.0115523,-4.51133e-05,-0.0236626,-0.0120639,0.00318234,0.0104551,0.0267238,0.00181644,0.00776366,0.0673508,-0.0756818,0.653338,-0.00874811,0.0544522,-0.185378,-0.0683421,-0.166471,-0.479512,-0.115949,0.02379,-0.0148225,-0.201945,-0.0781971,-0.055602,0.392078,-0.0120639,0.00318234,0.0104551,0.0267238,0.00181644,0.00776366,0,0,0,0,0,0,0,0,0,-0.000595234,-0.000179334,-3.59404e-05,-0.000789295,-0.000330383,-1.97173e-05,-0.000186729,-8.09582e-05,0.000348218,0.000210426,-4.91027e-05,2.02032e-05
1971,0.00051179,0.0023919,-0.00470836,-0.00192795,0.0771768,0.0771768,0.0771768,0.0771768,0.0771768,0.0771768,0.0771768,0.0771768,0.0771768,-0.922823,0.901062,-0.843732,1.54123,0.0023919,-0.00470836,-0.00192795,8.26604e-05,-0.00167083,0.00238057,-0.00211561,-0.00640045,-0.00212858,0.0771768,0.00177456,-0.00683956,-0.000721388,0.00156062,0.00205527,0.00129563,-0.00492421,0.00239239,-0.00071183,0.00038074,0.000269984,0.00111422,0.00276699,-0.000725143,0.00573795,8.26604e-05,-0.00167083,0.00238057,-0.00211561,-0.00640045,-0.00212858,0,0,0,0,0,0,0,0,0,-0.000500254,1.36984e-05,-0.000322935,-0.000551296,-0.000319565,0.000299012,-9.72498e-06,9.26431e-05,0.000248797,0.000588058,-0.000153948,-9.85636e-06
1972,0.00051179,0.017808,0.00403313,-0.0372028,0.0328567,0.0328567,0.0328567,0.0328567,0.0328567,0.0328567,0.0328567,0.0328567,0.0328567,-0.967143,-0.0804347,0.136292,0.980006,0.017808,0.00403313,-0.0372028,0.00249577,0.00141657,0.0104599,-0.00141037,-0.00497885,0.0272163,0.0328567,0.107839,0.453595,-0.00825571,-0.203181,0.200604,0.0236282,-0.121773,-0.672007,0.0880186,-0.0173046,-0.0086762,0.0099133,0.216453,-0.0446303,0.149063,0.00249577,0.00141657,0.0104599,-0.00141037,-0.00497885,0.0272163,0,0,0,0,0,0,0,0,0,-0.000523157,0.000344527,-3.4505e-05,0.00016126,-0.000369305,-3.38864e-05,0.000225892,-4.25356e-05,0.000335172,0.000179621,-9.40149e-05,-0.000294219
1973,0.00051179,0.00291897,-0.00242814,-0.00610707,0.104276,0.104276,0.104276,0.104276,0.104276,0.104276,0.104276,0.104276,0.104276,-0.854276,-0.472652,-0.862888,1.30298,0.00291897,-0.00242814,-0.00610707,-0.00607258,0.00190167,0.00292731,-0.00165859,-0.00190445,-0.0013993,0.104276,0.000386849,0.00453668,-0.000726931,0.00370963,-5.58692e-06,0.000864618,-0.000963489,-0.00745007,-0.000932114,0.00129049,-0.000184461,-0.000459418,-0.00257197,-0.000445101,0.00752998,-0.00607258,0.00190167,0.00292731,-0.00165859,-0.00190445,-0.0013993,0,0,0,0,0,0,0,0,0,-0.000377268,-1.67508e-05,0.000233213,-0.000358172,-0.000307256,-0.000221465,-1.27563e-06,-6.79157e-05,0.000350975,0.000396091,4.70266e-05,2.45588e-06
1974,0.00051179,-0.00489278,-0.00485055,-4.67189e-05,0.099931,0.099931,0.099931,0.099931,0.099931,0.099931,0.099931,0.099931,0.099931,-0.900069,-0.699242,0.599488,1.28781,-0.00489278,-0.00485055,-4.67189e-05,0.0023308,-0.000307094,-0.000598829,0.00206233,0.00391408,0.00436788,0.099931,0.00237842,-0.0213261,0.000792213,-0.00578206,-0.00140932,-0.00293087,0.0379266,0.0276282,0.00173573,0.00453201,-0.0020147,0.00291512,0.0061006,0.00295604,-0.040795,0.0023308,-0.000307094,-0.000598829,0.00206233,0.00391408,0.00436788,0,0,0,0,0,0,0,0,0,-0.000468858,5.27934e-06,-0.000429313,-0.000361733,-0.00034591,0.000434165,7.23537e-07,-8.35867e-06,0.000320099,0.000326436,2.73525e-05,1.83528e-05
1975,0.00051179,-0.00833646,-0.0042953,0.0128837,0.0230021,0.0230021,0.0230021,0.0230021,0.0230021,0.0230021,0.0230021,0.0230021,0.0230021,-0.976998,-0.944918,0.765237,1.5598,-0.00833646,-0.0042953,0.0128837,-0.00224006,0.00306252,-0.00167741,0.00343219,0.00723016,0.0119085,0.0230021,0.00151046,-0.00660715,0.00027854,-0.0018989,0.00305039,-0.000725925,0.0123132,0.0118932,0.000328435,0.0052174,0.00010276,-0.00950464,0.000976809,-0.00171717,-0.0156922,-0.00224006,0.00306252,-0.00167741,0.00343219,0.00723016,0.0119085,0,0,0,0,0,0,0,0,0,-0.000435725,-1.89046e-05,-0.000388687,-0.000497869,-0.000375802,0.000422098,3.54652e-06,5.65359e-05,0.000280134,0.000473836,1.67933e-05,3.57002e-05
1976,0.00051179,0.014913,-0.00165075,-0.00896003,0.000919989,0.000919989,0.000919989,0.000919989,0.000919989,0.000919989,0.000919989,0.000919989,0.000919989,-0.929407,-0.99908,-0.941266,1.65769,0.014913,-0.00165075,-0.00896003,-0.00802824,0.000706505,2.33203e-05,0.00210862,-0.00542544,0.00604147,0.000919989,0.00302018,-0.0234705,-0.000471525,0.00129085,-0.00368967,-0.000385143,0.0080246,0.0122471,-0.000348674,-0.001016,-5.56856e-05,-0.00502247,0.0013759,-0.00113575,0.0059579,-0.00802824,0.000706505,2.33203e-05,0.00210862,-0.00542544,0.00604147,0,0,0,0,0,0,0,0,0,-0.000489794,-2.69529e-05,0.000271813,-0.000536512,-0.000270331,-0.000269463,6.8871e-06,-0.000114076,0.000262387,0.000532894,5.92648e-05,2.2616e-05
1977,0.00051179,-0.0131801,-0.00215428,-0.00430231,0.0844716,0.0844716,0.0844716,0.0844716,0.0844716,0.0844716,0.0844716,0.0844716,0.0844716,-0.915528,0.812299,-0.321434,1.26544,-0.0131801,-0.00215428,-0.00430231,-0.00528382,-0.00436632,0.0062544,-0.00638329,-0.00495702,0.00622578,0.0844716,-0.0529144,0.415813,0.0168377,-0.0830237,0.0101033,-0.0367323,0.00880607,-0.412736,0.012717,-0.0388041,0.0236025,0.0724387,0.123982,-0.0219173,-0.0769424,-0.00528382,-0.00436632,0.0062544,-0.00638329,-0.00495702,0.00622578,0,0,0,0,0,0,0,0,0,-0.000777446,-0.000213042,-0.000679894,-0.000750446,-0.000234956,0.000804608,0.000109618,0.000313961,0.000259332,0.000445667,-0.000127507,-5.08531e-07
1978,0.00051179,-0.00251709,-0.00178594,0.00268618,0.105067,0.105067,0.105067,0.105067,0.105067,0.105067,0.105067,0.105067,0.105067,-0.855067,0.355232,0.625934,1.11764,-0.00251709,-0.00178594,0.00268618,-0.00117738,-0.000922156,0.0011499,-0.000438583,0.00125549,0.00905746,0.105067,0.000746205,-0.0148031,6.47977e-05,0.00589748,7.20705e-07,-0.000860896,0.0233858,0.0173194,-0.00251015,0.00115166,-0.00102971,0.000218022,-0.00526321,0.00203138,-0.0262901,-0.00117738,-0.000922156,0.0011499,-0.000438583,0.00125549,0.00905746,0,0,0,0,0,0,0,0,0,-0.000598319,-1.10508e-05,0.000202555,-0.00024917,-0.000343764,-0.000211129,-2.36386e-05,1.96728e-05,0.00031361,0.00025206,-1.74149e-05,4.65493e-05
1979,0.00051179,-0.0118484,-0.00390476,-0.0230283,0.0650135,0.0650135,0.0650135,0.0650135,0.0650135,0.0650135,0.0650135,0.0650135,0.0650135,-0.934986,0.785218,-0.0773341,1.22342,-0.0118484,-0.00390476,-0.0230283,0.0121218,-0.0132114,0.00747178,-0.0225392,-0.010861,-0.00469142,0.0650135,-0.403096,-3.32449,0.0695616,0.395819,0.204745,0.254973,0.753709,3.13159,0.00202273,0.116943,-0.0494948,-0.0732289,-0.508857,0.124382,-0.657452,0.0121218,-0.0132114,0.00747178,-0.0225392,-0.010861,-0.00469142,0,0,0,0,0,0,0,0,0,-0.000756137,-0.00161818,-0.000110829,0.00175926,-0.000253284,0.000674332,0.000234111,-0.000363391,0.000388183,0.000865187,-0.000240167,0.000935144
1980,0.00051179,0.00452002,0.0173941,-0.00373213,0.0581137,0.0581137,0.0581137,0.0581137,0.0581137,0.0581137,0.0581137,0.0581137,0.0581137,-0.808114,0.596385,-0.644972,1.19361,0.00452002,0.0173941,-0.00373213,-0.00724934,0.000515051,0.000643045,0.00479768,0.00921396,-0.00317827,0.0581137,0.000966564,-0.00115253,-0.000713401,0.00693837,-0.000111422,-0.000599544,0.0154522,-0.00325606,0.00700603,-0.0175854,-0.00164221,0.00240549,-0.00674711,0.000450853,-0.0141255,-0.00724934,0.000515051,0.000643045,0.00479768,0.00921396,-0.00317827,0,0,0,0,0,0,0,0,0,-0.000495441,-3.46372e-05,-0.00034357,-0.000421297,-0.000263298,0.000341587,5.57953e-05,0.00013214,0.000342995,0.000421732,-5.64227e-05,-1.68604e-05
1981,0.00051179,-0.00342555,0.00125709,-0.00100609,0.117302,0.117302,0.117302,0.117302,0.117302,0.117302,0.117302,0.117302,0.117302,-0.867302,-0.551818,0.630299,1.20582,-0.00342555,0.00125709,-0.00100609,8.03457e-05,0.000262417,-5.26868e-05,0.000515047,-0.000138448,0.00590168,0.117302,0.00115712,-0.0147277,0.000391968,-0.00188994,-0.00167233,-0.00126577,0.0267577,0.0198255,-0.00063117,-0.0020735,-0.00117964,0.0034099,0.00270635,0.00152979,-0.0291615,8.03457e-05,0.000262417,-5.26868e-05,0.000515047,-0.000138448,0.00590168,0,0,0,0,0,0,0,0,0,-0.000535958,-3.68129e-06,-0.000345151,-0.000288109,-0.0003339,0.000351695,-1.04492e-05,-2.43889e-06,0.00033126,0.000274924,-1.0742e-05,2.72887e-05
1982,0.00051179,0.0297204,0.0139459,-0.00437512,0.0330946,0.0330946,0.0330946,0.0330946,0.0330946,0.0330946,0.0330946,0.0330946,0.0330946,-0.874247,-0.966905,0.488177,1.39195,0.0297204,0.0139459,-0.00437512,-0.00724818,-0.00273499,-0.0156392,-0.0056002,-0.00103862,0.0141859,0.0330946,-0.00215881,0.0857076,0.000944205,-0.0289348,0.0147048,0.00646961,-0.0462916,-0.130133,0.000496877,-0.00831511,-0.000952628,-0.0360168,0.023304,-0.00599623,0.0866835,-0.00724818,-0.00273499,-0.0156392,-0.0056002,-0.00103862,0.0141859,0,0,0,0,0,0,0,0,0,-0.000276677,-3.97419e-05,-0.000595935,-0.000604677,-0.000323618,0.000578027,-1.82236e-05,-0.000118221,0.000314608,0.000512981,9.83084e-05,4.82415e-05
1983,0.00051179,0.00142048,0.00181398,0.00197862,0.0520908,0.0520908,0.0520908,0.0520908,0.0520908,0.0520908,0.0520908,0.0520908,0.0520908,-0.947909,-0.73876,-0.900063,1.50147,0.00142048,0.00181398,0.00197862,-0.00557879,0.0019987,0.00209992,-0.00899341,0.00476143,-0.00028359,0.0520908,0.000961915,-0.00717975,-0.000994526,0.00352289,-8.03213e-05,0.00100831,-0.00563732,0.00583959,-0.00153339,-0.00383309,3.39067e-05,0.00241987,-0.00150378,-0.00182021,0.00123883,-0.00557879,0.0019987,0.00209992,-0.00899341,0.00476143,-0.00028359,0,0,0,0,0,0,0,0,0,-0.000434086,-3.18345e-06,0.000299038,-0.000438064,-0.000273878,-0.000288996,-3.27331e-05,-9.2303e-05,0.0002864,0.000469146,0.000140256,9.38193e-06
1984,0.00051179,0.00180433,-0.00175658,-0.00125824,0.081075,0.081075,0.081075,0.081075,0.081075,0.081075,0.081075,0.081075,0.081075,-0.831075,0.888779,0.834513,1.47547,0.00180433,-0.00175658,-0.00125824,0.003974,-0.00119579,-0.00146507,0.00197752,0.00267015,0.00549084,0.081075,0.000551358,-0.000659678,0.000206538,-0.00161164,-0.000803444,0.000315044,-8.2904e-05,-0.000341206,-0.000349956,0.00136495,-0.000693484,-0.000205706,0.00200328,-0.000972364,0.00154685,0.003974,-0.00119579,-0.00146507,0.00197752,0.00267015,0.00549084,0,0,0,0,0,0,0,0,0,-0.000524886,1.03136e-05,0.000291763,-0.000486671,-0.000348264,-0.000301655,-4.17533e-06,5.4416e-05,0.000315078,0.00047517,-3.46493e-05,1.02792e-05
1985,0.00051179,-0.00536963,-0.00466774,-0.00410889,0.0472789,0.0472789,0.0472789,0.0472789,0.0472789,0.0472789,0.0472789,0.0472789,0.0472789,-0.952721,0.892004,-0.700469,1.48122,-0.00536963,-0.00466774,-0.00410889,0.0012495,-0.0010364,0.00207217,-1.47242e-05,-0.0105552,-0.0020107,0.0472789,0.000758007,0.0114544,-0.00156193,0.00971312,0.00468168,0.00112716,-0.00330327,-0.0107665,-0.000870975,-0.00764696,0.000506245,0.00024143,0.00260159,-0.000714879,0.00717074,0.0012495,-0.0010364,0.00207217,-1.47242e-05,-0.0105552,-0.0020107,0,0,0,0,0,0,0,0,0,-0.000578798,1.1888e-05,-0.000395576,-0.000588472,-0.000316674,0.000369593,-2.57799e-06,8.82302e-05,0.000230603,0.000620466,-0.000188719,-1.17774e-05
1986,0.00051179,0.0126035,-0.00852582,0.000205889,0.0969351,0.0969351,0.0969351,0.0969351,0.0969351,0.0969351,0.0969351,0.0969351,0.0969351,-0.846935,0.897201,0.359796,1.28519,0.0126035,-0.00852582,0.000205889,-0.00176933,0.00224799,-0.00142352,-0.000992826,0.0220924,0.00320811,0.0969351,0.000235751,-0.0300148,-0.00708961,0.0914126,0.0496425,0.00832488,-0.0420875,-0.0322312,-0.00904803,0.111307,0.0154671,-0.0857032,-0.194194,-0.0105837,0.127585,-0.00176933,0.00224799,-0.00142352,-0.000992826,0.0220924,0.00320811,0,0,0,0,0,0,0,0,0,-0.000262745,1.41975e-05,0.000644261,-0.000624399,-0.000405097,-0.000692677,-2.83389e-05,0.000336115,0.000302993,0.000693413,3.94802e-05,-1.50124e-05
1987,0.00051179,-0.0072539,0.00184877,0.00358558,0.105751,0.105751,0.105751,0.105751,0.105751,0.105751,0.105751,0.105751,0.105751,-0.855751,-0.300202,0.491557,1.03153,-0.0072539,0.00184877,0.00358558,-0.00467187,0.0037834,0.00103378,-0.00509332,0.00402013,0.00514177,0.105751,0.00285353,-0.048855,-0.000564806,0.0124559,-0.00102696,-0.00512865,0.0620285,0.0571358,0.000926984,0.0107053,0.000883475,0.00141182,-0.02501,0.00750318,-0.0670259,-0.00467187,0.0037834,0.00103378,-0.00509332,0.00402013,0.00514177,0,0,0,0,0,0,0,0,0,-0.00057324,-1.67766e-05,-0.000214674,-0.000240956,-0.000339979,0.00024686,-2.85166e-05,6.69805e-05,0.000323348,0.000200008,-1.79445e-05,5.55398e-05
1988,0.00051179,-0.0375416,0.0288594,0.0302095,0.0405962,0.0405962,0.0405962,0.0405962,0.0405962,0.0405962,0.0405962,0.0405962,0.0405962,-0.709404,-0.77676,0.00993063,1.052,-0.0375416,0.0288594,0.0302095,0.00549127,-0.0258074,-0.00798762,0.0209327,-0.00783578,-0.020368,0.0405962,0.468167,3.39694,0.0444845,0.14941,-0.395153,1.07484,-6.78821,-2.96424,0.0671593,0.430383,0.144513,-1.15307,-0.608652,0.09717,7.91107,0.00549127,-0.0258074,-0.00798762,0.0209327,-0.00783578,-0.020368,0,0,0,0,0,0,0,0,0,-0.000363044,0.0016315,0.000157879,0.0213438,-0.000332082,2.8892e-05,-0.000296331,0.00396007,0.000197716,-0.0106753,-0.00259331,-0.000352781
1989,0.00051179,0.00218501,0.00226479,0.00314695,0.0658658,0.0658658,0.0658658,0.0658658,0.0658658,0.0658658,0.0658658,0.0658658,0.0658658,-0.934134,-0.734089,-0.846245,1.45864,0.00218501,0.00226479,0.00314695,-0.0041946,0.00254295,0.00189243,-0.00685353,0.00487461,0.000238898,0.0658658,0.000434116,-0.00327725,-0.00111195,0.00491164,-0.000412897,0.00108447,-0.00901733,0.00150514,-0.00166442,-0.00353002,-7.47172e-05,0.00276463,-0.00364641,-0.00149662,0.00310575,-0.0041946,0.00254295,0.00189243,-0.00685353,0.00487461,0.000238898,0,0,0,0,0,0,0,0,0,-0.000456356,-3.18376e-06,0.000316837,-0.000437824,-0.000282997,-0.000302527,-2.69711e-05,-8.96744e-05,0.000293911,0.000467593,0.000137673,9.33002e-06
1990,0.00051179,-0.0117035,-0.00919741,0.00491424,0.108373,0.108373,0.108373,0.108373,0.108373,0.108373,0.108373,0.108373,0.108373,-0.891627,-0.881832,-0.314688,1.29292,-0.0117035,-0.00919741,0.00491424,-0.00285987,0.00546525,-0.000966139,-0.00521862,-0.00967796,0.000511548,0.108373,-0.025758,0.382338,-0.0201297,0.131469,-0.0692732,-0.00854826,0.123901,-0.301361,0.00962935,0.0707704,-0.0246797,-0.0639931,-0.193042,0.000127636,-0.064822,-0.00285987,0.00546525,-0.000966139,-0.00521862,-0.00967796,0.000511548,0,0,0,0,0,0,0,0,0,-0.000815004,-0.000115896,0.000683018,-0.000769624,-0.000404948,-0.000829663,4.92474e-05,-0.00047788,0.000293955,0.00067448,0.000134303,3.03897e-05
1991,0.00051179,0.00117159,-0.0264047,0.0143342,0.12081,0.12081,0.12081,0.12081,0.12081,0.12081,0.12081,0.12081,0.12081,-0.87919,0.504623,-0.126231,1.02154,0.00117159,-0.0264047,0.0143342,0.00356448,0.0123315,0.0088912,0.0148488,-0.0118849,0.00465336,0.12081,-0.73748,-5.10655,-0.093894,-0.643217,0.599113,-0.0933585,-1.871,4.50627,-0.105702,0.0640608,-0.0152623,-0.0149445,0.605561,0.106853,1.87161,0.00356448,0.0123315,0.0088912,0.0148488,-0.0118849,0.00465336,0,0,0,0,0,0,0,0,0,-0.000862896,-0.00284658,-0.000612237,-1.58571e-05,-0.000318462,-0.000203387,0.000368728,-0.000224391,0.000346422,-0.000828816,-4.70813e-05,0.00138053
1992,0.00051179,0.0232874,-0.00966572,0.0260671,0.0625098,0.0625098,0.0625098,0.0625098,0.0625098,0.0625098,0.0625098,0.0625098,0.0625098,-0.93749,0.0177477,-0.141159,0.948224,0.0232874,-0.00966572,0.0260671,-0.00510623,0.00166679,-0.0016822,0.010163,0.000614114,-0.00443732,0.0625098,-0.105484,-0.298376,-0.0151934,-0.0255898,-0.38879,0.00412444,-0.145502,0.663879,-0.049517,0.00194376,-0.0114119,0.0291206,0.0333117,0.0320295,0.0903141,-0.00510623,0.00166679,-0.0016822,0.010163,0.000614114,-0.00443732,0,0,0,0,0,0,0,0,0,-0.00057362,-0.000411776,-2.72468e-05,-0.000147776,-0.000327939,-0.000108019,-5.55946e-05,-8.54044e-05,0.000351518,0.000172198,-2.25736e-05,0.000279136
1993,0.00051179,0.0151926,0.00765552,0.000643671,0.0345103,0.0345103,0.0345103,0.0345103,0.0345103,0.0345103,0.0345103,0.0345103,0.0345103,-0.96549,0.42935,-0.0124894,1.05673,0.0151926,0.00765552,0.000643671,0.00236013,-0.00368544,-0.0245446,-0.00297965,0.0123391,-0.0116254,0.0345103,-0.0404509,-0.651079,-0.0152022,-0.0146172,0.0710679,0.163673,1.1496,0.564819,0.0103649,0.0113682,0.0331712,-0.192456,-0.00440652,0.0180142,-0.957785,0.00236013,-0.00368544,-0.0245446,-0.00297965,0.0123391,-0.0116254,0,0,0,0,0,0,0,0,0,-0.0005899,-0.000162396,-0.000151092,0.000938668,-0.000303829,-3.77844e-05,6.49842e-05,0.000242317,0.000439018,0.000452615,0.000212785,6.00015e-05
1994,0.00051179,-0.451939,-0.0167074,-0.020752,0.0157074,0.0157074,0.0157074,0.0157074,0.0157074,0.0157074,0.0157074,0.0157074,0.0157074,-0.710931,-0.74245,-0.0842926,1.03139,-0.451939,-0.0167074,-0.020752,0.347825,0.154424,-0.0167011,-0.174306,0.0514303,-0.107487,0.0157074,-4.56006,-56.0629,-0.296465,-2.32128,3.79436,-0.427846,-6.24047,52.7205,-0.690867,-3.15799,-0.0275513,0.290085,5.49598,-0.670284,5.97113,0.347825,0.154424,-0.0167011,-0.174306,0.0514303,-0.107487,0,0,0,0,0,0,0,0,0,-0.00202787,-0.0143052,-0.000340622,0.00685379,-0.000579858,-0.00107979,0.00243011,0.00199029,1.00881e-05,-0.0112993,-0.0017515,0.00286713
1995,0.00051179,-0.0066492,-0.0279103,-0.00954811,0.0253645,0.0253645,0.0253645,0.0253645,0.0253645,0.0253645,0.0253645,0.0253645,0.0253645,-0.974636,0.615648,-0.417557,1.22609,-0.0066492,-0.0279103,-0.00954811,-0.00699335,-0.00229165,-0.00016891,-0.00329266,-0.0112723,0.0162131,0.0253645,-0.0480966,0.3979,0.00588901,-0.028625,0.0246122,-0.0386535,0.138053,-0.415863,-0.00592797,0.0796862,-0.000424663,0.0539221,-0.0231508,-0.0246454,-0.182427,-0.00699335,-0.00229165,-0.00016891,-0.00329266,-0.0112723,0.0162131,0,0,0,0,0,0,0,0,0,-0.000592582,-0.000191516,-0.000493672,-0.000397072,-0.000308627,0.000529646,3.78309e-05,5.54095e-05,0.000282139,8.84814e-06,-0.000172379,4.17727e-05
1996,0.00051179,-0.00360174,-0.00217079,0.0030722,0.11142,0.11142,0.11142,0.11142,0.11142,0.11142,0.11142,0.11142,0.11142,-0.88858,-0.731192,-0.601988,1.29869,-0.00360174,-0.00217079,0.0030722,-0.00356575,0.00140654,0.0028306,-0.00226046,-0.000659239,0.00155066,0.11142,0.000572816,0.0317537,-0.00159835,0.0101078,-0.00293308,-0.00144316,0.0216363,-0.0252189,0.00367679,0.0130715,-0.00227511,-0.00418231,-0.0210084,-0.000929423,-0.0205262,-0.00356575,0.00140654,0.0028306,-0.00226046,-0.000659239,0.00155066,0,0,0,0,0,0,0,0,0,-0.000564612,-1.38623e-05,0.000428321,-0.000456143,-0.000324512,-0.00043024,8.18397e-06,-0.000144641,0.000317797,0.000470017,0.000115297,4.20854e-06
1997,0.00051179,-0.000650316,-0.00143677,0.0014474,0.0645448,0.0645448,0.0645448,0.0645448,0.0645448,0.0645448,0.0645448,0.0645448,0.0645448,-0.935455,-0.670443,0.846271,1.42855,-0.000650316,-0.00143677,0.0014474,-0.00382635,-0.000679655,-0.00308052,0.00537692,0.00578405,0.00418246,0.0645448,0.000961199,-0.0067449,0.000368185,-0.00266425,0.00123906,0.000308953,0.00361002,0.00615616,-0.000150995,-0.000502239,-0.000563947,0.000614464,0.00460326,-0.00154362,-0.00567189,-0.00382635,-0.000679655,-0.00308052,0.00537692,0.00578405,0.00418246,0,0,0,0,0,0,0,0,0,-0.000565782,-2.00945e-05,-0.000302832,-0.000356871,-0.000354523,0.000299717,2.03608e-05,1.66861e-05,0.000310943,0.000329156,3.55149e-05,7.42542e-06
1998,0.00051179,0.0193728,0.0126173,0.0392557,0.0608875,0.0608875,0.0608875,0.0608875,0.0608875,0.0608875,0.0608875,0.0608875,0.0608875,-0.810887,0.0305719,0.116396,0.819769,0.0193728,0.0126173,0.0392557,0.0163565,0.000242498,0.0185911,-0.00528786,0.000933303,-0.0111151,0.0608875,0.206911,1.16437,0.0260536,0.176288,0.785388,-0.0179568,-1.12598,-1.96913,0.190226,0.037938,-0.0139344,-0.198991,-0.226843,-0.0442773,1.28571,0.0163565,0.000242498,0.0185911,-0.00528786,0.000933303,-0.0111151,0,0,0,0,0,0,0,0,0,-0.000449911,0.000709246,0.000136204,7.88085e-05,-0.000326747,0.000126757,0.0005176,-5.83185e-05,0.000349857,-7.24657e-05,-7.16921e-05,-0.000684055
1999,0.00051179,-0.00178237,-0.000318319,-0.0124466,0.0239926,0.0239926,0.0239926,0.0239926,0.0239926,0.0239926,0.0239926,0.0239926,0.0239926,-0.822009,0.976007,-0.94455,1.5876,-0.00178237,-0.000318319,-0.0124466,-0.00754878,-0.00292066,-0.00117077,-0.00345261,-0.000252038,-0.00275293,0.0239926,0.00163944,-0.00933157,-0.000219755,0.00120667,0.00191764,0.000485346,-0.00399336,0.0091963,1.3588e-05,-0.000321454,0.000384881,0.00214277,-0.000566899,-7.5344e-05,0.0142972,-0.00754878,-0.00292066,-0.00117077,-0.00345261,-0.000252038,-0.00275293,0,0,0,0,0,0,0,0,0,-0.0004659,-1.54967e-05,-0.000302628,-0.000582157,-0.000302846,0.000271224,-3.14515e-06,0.000126271,0.000297569,0.000575303,-0.000124942,-9.13951e-08
2000,0.00051179,0.00110166,0.00645216,-0.00394664,0.0570865,0.0570865,0.0570865,0.0570865,0.0570865,0.0570865,0.0570865,0.0570865,0.0570865,-0.942914,-0.356238,-0.595486,1.17072,0.00110166,0.00645216,-0.00394664,-0.00429092,0.00350643,-0.000439253,-0.0103986,0.00171749,0.00100283,0.0570865,-0.00281976,0.045312,-0.00271761,0.0129729,-0.000445879,-0.0055768,0.0356144,-0.0459677,0.00474639,0.000505775,-0.00436263,-0.00399294,-0.0199309,-0.00305138,-0.0276748,-0.00429092,0.00350643,-0.000439253,-0.0103986,0.00171749,0.00100283,0,0,0,0,0,0,0,0,0,-0.000438668,-1.84633e-05,0.000219132,-0.000321473,-0.000305885,-0.000211244,-1.11709e-05,-5.43192e-05,0.000326842,0.000261313,2.78677e-05,6.84735e-06
2001,0.00051179,0.00920824,0.00665277,0.00227822,0.0214384,0.0214384,0.0214384,0.0214384,0.0214384,0.0214384,0.0214384,0.0214384,0.0214384,-0.771438,0.769538,0.682253,1.2856,0.00920824,0.00665277,0.00227822,0.00548037,-0.000191942,-0.0010443,-0.00076721,0.0153818,0.00200255,0.0214384,-5.42849e-05,-0.0104939,0.000410683,-0.0113429,-0.000438018,0.000558771,0.00460986,0.00172367,-0.00264777,0.00620195,-0.000760537,0.00158889,-0.00151177,-0.000925083,-0.00847697,0.00548037,-0.000191942,-0.0010443,-0.00076721,0.0153818,0.00200255,0,0,0,0,0,0,0,0,0,-0.000494197,2.35667e-05,0.000357103,-0.000416957,-0.000380421,-0.000354916,-2.06387e-05,0.000121804,0.000342235,0.000412101,2.44085e-05,1.8236e-06
2002,0.00051179,-0.00598154,0.00334003,-0.0123057,0.00230089,0.00230089,0.00230089,0.00230089,0.00230089,0.00230089,0.00230089,0.00230089,0.00230089,-0.799368,0.358248,-0.997699,1.32768,-0.00598154,0.00334003,-0.0123057,-0.00115017,0.00353105,-0.00225875,0.000914467,-0.000897303,0.000188731,0.00230089,0.00141968,-0.0078002,5.38006e-05,0.00236536,-0.000163468,0.000454377,-0.000158873,0.0139452,-0.00034927,-0.000316202,0.000278822,0.00115796,-0.00538919,-0.00103905,0.0113066,-0.00115017,0.00353105,-0.00225875,0.000914467,-0.000897303,0.000188731,0,0,0,0,0,0,0,0,0,-0.000302203,1.36557e-06,-0.000134668,-0.000410426,-0.000298882,0.000170516,2.844e-06,4.37306e-05,0.000361912,0.000392382,-4.99154e-05,-4.23359e-06
2003,0.00051179,-0.00230136,0.000210278,0.00227532,0.0532672,0.0532672,0.0532672,0.0532672,0.0532672,0.0532672,0.0532672,0.0532672,0.0532672,-0.946733,-0.501345,0.773241,1.32119,-0.00230136,0.000210278,0.00227532,-0.00190216,-0.0019869,-0.00224799,0.00919622,0.00447454,0.00186073,0.0532672,0.000856176,-0.0130077,0.000767715,-0.00553235,-0.000611347,-0.000823453,0.0235348,0.0159204,-0.000393497,0.000386238,-0.000782696,0.00116191,0.00493583,0.000235107,-0.026972,-0.00190216,-0.0019869,-0.00224799,0.00919622,0.00447454,0.00186073,0,0,0,0,0,0,0,0,0,-0.000591412,-1.65983e-05,-0.000269963,-0.000281522,-0.000354731,0.000257772,3.26452e-05,2.59932e-05,0.00031168,0.000250807,1.09252e-05,-8.89173e-07
2004,0.00051179,-0.0256462,-0.0348837,-0.0423732,0.0894763,0.0894763,0.0894763,0.0894763,0.0894763,0.0894763,0.0894763,0.0894763,0.0894763,-0.910524,-0.696319,-0.156332,1.15687,-0.0256462,-0.0348837,-0.0423732,0.00748335,0.00810483,0.0149832,0.00410141,0.00688593,0.00455263,0.0894763,-0.570168,-2.98469,-0.0623669,-0.0384777,0.575696,-0.0882239,-1.77333,2.43464,-0.0507932,-0.264391,-0.000330771,0.0950956,0.337752,0.0729109,1.72061,0.00748335,0.00810483,0.0149832,0.00410141,0.00688593,0.00455263,0,0,0,0,0,0,0,0,0,-0.000833578,-0.00219968,0.000246063,-0.000311747,-0.000389928,-0.000788683,0.000380287,-3.68394e-06,0.000350192,-0.00042066,6.92356e-05,0.00100106
2005,0.00051179,0.0497218,-0.00735471,-0.0366721,0.0308666,0.0308666,0.0308666,0.0308666,0.0308666,0.0308666,0.0308666,0.0308666,0.0308666,-0.780867,-0.909478,0.265373,1.22773,0.0497218,-0.00735471,-0.0366721,0.00565983,-0.0101882,0.0205691,-0.0262496,-0.0628578,-0.048722,0.0308666,0.00445969,-0.190711,0.00449187,-0.200027,0.0415928,-0.000878341,-0.0787773,0.0993967,-0.0149558,-0.228361,-0.0332314,-0.173059,0.435743,-0.0460345,0.288508,0.00565983,-0.0101882,0.0205691,-0.0262496,-0.0628578,-0.048722,0,0,0,0,0,0,0,0,0,-0.000162549,0.0001958,-0.000667196,-0.00104426,-0.000178123,0.000610233,-6.08243e-05,-0.00067649,0.000407621,0.00124117,-0.000284401,-0.00032858
2006,0.00051179,0.059165,0.0139027,-0.00786948,0.0121583,0.0121583,0.0121583,0.0121583,0.0121583,0.0121583,0.0121583,0.0121583,0.0121583,-0.737842,0.315823,-0.0736244,0.805962,0.059165,0.0139027,-0.00786948,0.033692,0.0574697,0.0745122,0.0391087,-0.00104698,0.00423387,0.0121583,-1.31996,-13.3897,-0.525688,-6.75263,-0.804111,0.0190951,-3.22974,14.1347,-0.511849,-0.8802,0.057981,0.0447853,7.61892,-0.210294,3.19283,0.033692,0.0574697,0.0745122,0.0391087,-0.00104698,0.00423387,0,0,0,0,0,0,0,0,0,-0.00106436,-0.00416396,-0.00230215,0.00434491,-0.000517989,-0.00238004,-9.63124e-05,0.00129146,0.000242703,-0.00340883,-0.000722122,0.00123709
2007,0.00051179,0.00442014,-0.00506931,0.00505687,0.0444881,0.0444881,0.0444881,0.0444881,0.0444881,0.0444881,0.0444881,0.0444881,0.0444881,-0.818703,0.839739,0.955512,1.51276,0.00442014,-0.00506931,0.00505687,0.00689722,-0.00210178,0.00464563,0.0034715,0.00426547,0.00586005,0.0444881,0.000990346,-0.00293643,-0.00042858,-2.17624e-05,-0.000391042,0.000344433,-0.00195182,-0.00109267,-0.00106959,0.000920561,-0.00030863,-0.000391693,0.00417051,-0.000971038,-0.00271336,0.00689722,-0.00210178,0.00464563,0.0034715,0.00426547,0.00586005,0,0,0,0,0,0,0,0,0,-0.000592776,2.19242e-05,0.000237383,-0.000412424,-0.000344718,-0.000262687,-5.50411e-06,6.66758e-05,0.000323549,0.000462325,-2.71074e-05,6.93142e-06
2008,0.00051179,0.0330155,0.028145,-0.0146978,0.0430168,0.0430168,0.0430168,0.0430168,0.0430168,0.0430168,0.0430168,0.0430168,0.0430168,-0.956983,0.79639,0.252553,1.27037,0.0330155,0.028145,-0.0146978,0.000444241,-0.0082546,0.0254268,0.00931653,-0.0329559,-0.00364385,0.0430168,0.160786,0.181116,-0.0457292,0.0858888,-0.0707406,-0.0343622,-0.543094,-0.143391,0.00369213,-0.0890193,0.0118116,0.107291,-0.0250145,-0.0057397,0.4505,0.000444241,-0.0082546,0.0254268,0.00931653,-0.0329559,-0.00364385,0,0,0,0,0,0,0,0,0,-0.000293173,0.000615934,0.000635895,-0.000136196,-0.00032481,-0.00117573,-0.000125175,-1.08734e-05,0.000261888,4.68424e-05,-0.00020057,-0.000237136
2009,0.00051179,0.0103854,-0.00295158,0.00417012,0.10595,0.10595,0.10595,0.10595,0.10595,0.10595,0.10595,0.10595,0.10595,-0.89405,-0.0798848,-0.0510566,0.899063,0.0103854,-0.00295158,0.00417012,-0.00635225,-0.00525573,0.00221097,0.000894256,0.00327172,0.00311407,0.10595,-0.0782895,-0.488281,0.0300254,0.161178,-0.31132,0.0880452,0.383332,0.789215,-0.0300203,0.0635034,-0.0358099,0.292003,-0.22173,0.0239698,-0.679505,-0.00635225,-0.00525573,0.00221097,0.000894256,0.00327172,0.00311407,0,0,0,0,0,0,0,0,0,-0.00058008,-0.000323189,0.000115898,0.000578948,-0.000334496,0.000131799,-4.56101e-05,-0.000215406,0.000392646,0.000323613,-0.000109977,0.000235439
2010,0.00051179,-0.0065532,0.0025204,-0.0104442,0.00408789,0.00408789,0.00408789,0.00408789,0.00408789,0.00408789,0.00408789,0.00408789,0.00408789,-0.811607,-0.656449,-0.995912,1.44273,-0.0065532,0.0025204,-0.0104442,-0.00690305,0.000755215,-9.33111e-05,-0.0102326,-0.00348115,0.00294496,0.00408789,0.00114371,-0.00886359,-0.000143968,0.00332924,0.00066464,0.000269085,-0.0019716,0.0147522,-0.000571506,-0.00106294,0.000270016,0.000342367,-0.0047867,-0.0011597,0.0120735,-0.00690305,0.000755215,-9.33111e-05,-0.0102326,-0.00348115,0.00294496,0,0,0,0,0,0,0,0,0,-0.000369824,-1.17449e-05,0.000254707,-0.000436185,-0.000303293,-0.000248594,-3.69689e-05,-0.000111202,0.000355497,0.000437943,7.90912e-05,2.59781e-05
2011,0.00051179,-0.0310676,-0.00948834,0.0013907,0.0811276,0.0811276,0.0811276,0.0811276,0.0811276,0.0811276,0.0811276,0.0811276,0.0811276,-0.831128,0.046976,0.0795268,0.836244,-0.0310676,-0.00948834,0.0013907,0.00208369,-0.00473644,0.00143684,0.010986,0.00768721,-0.00370732,0.0811276,0.169779,1.10894,0.0367634,0.306348,0.618374,0.0661737,-0.128833,-1.69625,0.124216,0.0205546,-0.00333418,0.159802,-0.317414,-0.0760515,-0.0323589,0.00208369,-0.00473644,0.00143684,0.010986,0.00768721,-0.00370732,0,0,0,0,0,0,0,0,0,-0.000476621,0.000597038,0.000157648,0.000646548,-0.000322426,0.000162622,0.000413735,8.48862e-05,0.000375777,2.95577e-05,-4.13558e-05,-0.000661071
2012,0.00051179,-0.00254267,0.00265314,0.00181846,0.113193,0.113193,0.113193,0.113193,0.113193,0.113193,0.113193,0.113193,0.113193,-0.863193,-0.490204,0.431834,1.08254,-0.00254267,0.00265314,0.00181846,-0.00371943,0.00169092,0.00116142,-0.00795855,0.00386512,0.00871347,0.113193,0.00655235,-0.139954,7.68378e-05,0.00613086,-0.0107021,-0.0132755,0.153891,0.153199,-0.00359218,0.0429398,0.00230537,0.0238458,-0.0517238,0.0177777,-0.179555,-0.00371943,0.00169092,0.00116142,-0.00795855,0.00386512,0.00871347,0,0,0,0,0,0,0,0,0,-0.000501193,-6.34308e-06,-0.000373108,-0.000318613,-0.000337327,0.000390786,-7.82613e-05,6.76141e-05,0.000319049,0.000197472,-5.90922e-06,0.000111948
2013,0.00051179,-0.0484638,-0.0144312,0.08321,0.0243296,0.0243296,0.0243296,0.0243296,0.0243296,0.0243296,0.0243296,0.0243296,0.0243296,-0.77433,-0.770922,-0.0988462,1.09712,-0.0484638,-0.0144312,0.08321,0.0761345,0.0238299,0.0885983,-0.0900509,0.00687603,0.0032317,0.0243296,-2.04127,-22.3752,-0.21876,-1.9738,1.6781,-0.194495,-9.50662,20.7456,-0.147759,-1.10592,-0.0383002,0.452155,3.09415,0.0527088,8.97126,0.0761345,0.0238299,0.0885983,-0.0900509,0.00687603,0.0032317,0,0,0,0,0,0,0,0,0,-0.00140589,-0.00734835,-0.000440433,0.000980325,-0.000570143,-0.00150887,0.00128826,0.000811097,0.000354409,-0.0020393,-0.00112534,0.00275701
2014,0.00051179,-0.00170118,-0.0119616,-0.010427,0.0471164,0.0471164,0.0471164,0.0471164,0.0471164,0.0471164,0.0471164,0.0471164,0.0471164,-0.952884,0.65968,-0.449157,1.24294,-0.00170118,-0.0119616,-0.010427,-0.00599961,-0.00140744,-0.00274092,-0.00266248,-0.0116341,0.00654974,0.0471164,-0.0223678,0.261641,0.00371779,-0.0448529,0.00294265,-0.021362,0.146164,-0.262882,0.00337015,0.0355414,0.00262643,0.0445647,0.0212731,-0.0160303,-0.180301,-0.00599961,-0.00140744,-0.00274092,-0.00266248,-0.0116341,0.00654974,0,0,0,0,0,0,0,0,0,-0.000604413,-9.8983e-05,-0.000510985,-0.00045093,-0.000297273,0.000534088,4.63925e-05,8.24151e-05,0.000276305,0.000209901,-0.000172492,-4.54849e-06
2015,0.00051179,-0.000459746,-0.000655527,0.00546379,0.121996,0.121996,0.121996,0.121996,0.121996,0.121996,0.121996,0.121996,0.121996,-0.871996,-0.484364,-0.42396,1.08385,-0.000459746,-0.000655527,0.00546379,-0.00382205,-6.12177e-05,0.000357827,0.00337046,0.00259596,-0.00597336,0.121996,-0.0116786,0.229299,-0.000512533,0.00578009,0.00871824,-0.0178118,0.230868,-0.237558,0.0125492,-0.00754563,-0.00572455,0.00817358,0.00242107,-0.0188444,-0.244505,-0.00382205,-6.12177e-05,0.000357827,0.00337046,0.00259596,-0.00597336,0,0,0,0,0,0,0,0,0,-0.000540264,-4.9351e-05,0.000351738,-0.000471174,-0.00034293,-0.000357475,0.000107751,-7.88842e-05,0.000334471,0.000296634,4.75983e-05,-9.59361e-05
2016,0.00051179,0.00813842,0.00825258,-0.014619,0.0312632,0.0312632,0.0312632,0.0312632,0.0312632,0.0312632,0.0312632,0.0312632,0.0312632,-0.968737,0.00616922,-0.00780677,0.968788,0.00813842,0.00825258,-0.014619,0.0105551,-0.00251161,-0.00678143,0.00218094,0.00266342,0.00122989,0.0312632,-0.0108912,-0.0899921,0.00609285,-0.0226697,-0.109178,0.0786234,0.203844,0.191032,0.0209197,0.0155475,-0.0114001,0.249409,-0.00113043,-0.0121392,-0.438634,0.0105551,-0.00251161,-0.00678143,0.00218094,0.00266342,0.00122989,0,0,0,0,0,0,0,0,0,-0.000548728,-1.53597e-05,-5.238e-06,0.000236084,-0.000342214,4.10504e-05,0.000101824,-6.64647e-05,0.000358433,0.000482336,-2.09024e-05,-6.82257e-05
2017,0.00051179,-0.000309199,0.00244647,0.0184586,0.124272,0.124272,0.124272,0.124272,0.124272,0.124272,0.124272,0.124272,0.124272,-0.875728,-0.200135,0.270182,0.938057,-0.000309199,0.00244647,0.0184586,0.000585268,-0.00880669,0.00417312,-0.00413298,0.00918653,0.00252772,0.124272,0.0525633,-0.514853,-0.00497102,0.0121988,0.0567152,-0.0500724,0.0489689,0.458447,0.0576072,0.130031,0.018145,-0.130481,-0.144677,0.0291807,0.063053,0.000585268,-0.00880669,0.00417312,-0.00413298,0.00918653,0.00252772,0,0,0,0,0,0,0,0,0,-0.000511691,0.00010613,-0.000209616,-0.00053434,-0.000379944,7.18391e-05,0.000107758,0.000238181,0.000309169,7.53471e-05,3.51346e-05,-1.07066e-06
2018,0.00051179,0.00223801,0.00153417,-0.0174033,0.0392585,0.0392585,0.0392585,0.0392585,0.0392585,0.0392585,0.0392585,0.0392585,0.0392585,-0.960742,0.126362,-0.678624,1.18301,0.00223801,0.00153417,-0.0174033,-0.00291586,0.000725671,0.00411635,-0.00767876,-0.000527604,-0.000359365,0.0392585,-0.00229071,0.0300373,-0.00325989,0.0165018,0.000134788,-0.00282699,0.0229503,-0.0324101,0.0029258,0.00340302,-0.0031122,0.0036792,-0.021439,-0.00204288,-0.00922625,-0.00291586,0.000725671,0.00411635,-0.00767876,-0.000527604,-0.000359365,0,0,0,0,0,0,0,0,0,-0.00038074,-1.17693e-05,-8.00109e-05,-0.000313094,-0.000306541,5.46687e-05,-9.50124e-06,-7.11201e-07,0.000316948,0.000325987,-3.56868e-05,2.25238e-06
2019,0.00051179,-0.00497891,-0.000394397,-0.00251015,0.0478367,0.0478367,0.0478367,0.0478367,0.0478367,0.0478367,0.0478367,0.0478367,0.0478367,-0.91487,-0.362528,-0.952163,1.36932,-0.00497891,-0.000394397,-0.00251015,-0.00644114,-0.00035049,0.00280494,-0.0101771,-0.000115649,-0.00176324,0.0478367,0.00166602,-0.0056327,-0.000528567,0.0027744,0.000312363,0.000928733,-2.04859e-05,0.0102992,-0.00155004,-0.000830361,3.07532e-05,8.61378e-05,-0.00154964,-0.00159212,0.0024445,-0.00644114,-0.00035049,0.00280494,-0.0101771,-0.000115649,-0.00176324,0,0,0,0,0,0,0,0,0,-0.000324212,-9.62987e-07,0.000170232,-0.000336278,-0.000292802,-0.000179023,-3.5723e-05,-4.06405e-05,0.000332586,0.000373615,3.97916e-05,6.13583e-06
2020,0.00051179,-0.0259638,0.00846949,0.00827268,0.0448281,0.0448281,0.0448281,0.0448281,0.0448281,0.0448281,0.0448281,0.0448281,0.0448281,-0.794828,0.551613,-0.355521,1.03074,-0.0259638,0.00846949,0.00827268,-0.0213594,-0.0022216,0.00183178,0.0123888,-0.00267881,0.0029522,0.0448281,-0.00218026,0.193637,0.00196648,-0.0420692,0.00387291,-0.00962949,0.346134,-0.171546,0.0453856,-0.0101857,0.00336939,0.060718,0.0437854,-0.0308989,-0.415125,-0.0213594,-0.0022216,0.00183178,0.0123888,-0.00267881,0.0029522,0,0,0,0,0,0,0,0,0,-0.000620581,-0.000124954,-0.000450461,-0.000761817,-0.000226671,0.00044791,0.000281617,4.3872e-05,0.000335053,0.00068384,-3.69662e-05,-0.000146989
2021,0.00051179,0.0175762,0.0316912,0.000312448,0.12161,0.12161,0.12161,0.12161,0.12161,0.12161,0.12161,0.12161,0.12161,-0.87839,0.583474,0.0837577,1.05784,0.0175762,0.0316912,0.000312448,-0.000727952,-0.00125446,0.00865811,-0.0043772,0.00541907,0.00213569,0.12161,0.759827,6.00904,0.0174367,0.622309,-0.587667,0.173496,0.538138,-5.43895,0.10149,-0.224265,-0.0117796,-0.228985,-0.429736,-0.168861,-0.309466,-0.000727952,-0.00125446,0.00865811,-0.0043772,0.00541907,0.00213569,0,0,0,0,0,0,0,0,0,-0.00028459,0.00299993,0.000295166,0.00226626,-0.000298047,-0.000133344,-0.000309996,-8.91832e-05,0.0003995,-0.000444715,2.55783e-05,-0.00162919
2022,0.00051179,-0.0102439,-0.00583117,-0.0104884,0.115397,0.115397,0.115397,0.115397,0.115397,0.115397,0.115397,0.115397,0.115397,-0.873462,-0.884603,-0.396473,1.30486,-0.0102439,-0.00583117,-0.0104884,-0.00651878,0.00672991,-0.00119311,-0.000580353,-0.00850413,-0.00482564,0.115397,0.00263567,-0.000245592,-0.00555628,0.0608923,-0.0245394,0.00228844,0.0153648,0.0350289,0.0039656,0.063413,-0.010973,-0.0548595,-0.118474,0.00679236,0.049983,-0.00651878,0.00672991,-0.00119311,-0.000580353,-0.00850413,-0.00482564,0,0,0,0,0,0,0,0,0,-0.000759713,-2.11104e-05,0.000647065,-0.000666466,-0.00038361,-0.000635328,1.52314e-05,-0.000366247,0.000305139,0.000677419,0.000171475,8.13876e-06
2023,0.00051179,-0.000657932,-0.0109868,0.00426633,0.074637,0.074637,0.074637,0.074637,0.074637,0.074637,0.074637,0.074637,0.074637,-0.910157,-0.925363,-0.650157,1.45168,-0.000657932,-0.0109868,0.00426633,0.000716901,0.00127225,-0.00158257,0.00198963,0.000862121,-0.0034681,0.074637,0.00113972,0.0119233,-0.000750892,0.00259078,-0.00674831,0.000986472,0.0030158,-0.00451704,-0.000181066,0.012301,-0.00010413,-0.0153484,-0.00390503,0.000702444,0.00806631,0.000716901,0.00127225,-0.00158257,0.00198963,0.000862121,-0.0034681,0,0,0,0,0,0,0,0,0,-0.000623882,8.24517e-06,0.000441132,-0.000572829,-0.000309253,-0.000435918,8.00489e-06,-0.000125641,0.000278257,0.000566868,0.000133221,-1.48662e-05
2024,0.00051179,0.0112239,-0.00979981,0.00463489,0.00436593,0.00436593,0.00436593,0.00436593,0.00436593,0.00436593,0.00436593,0.00436593,0.00436593,-0.754366,0.784747,0.988928,1.47067,0.0112239,-0.00979981,0.00463489,0.0159851,-0.0144913,-0.00820618,0.00863083,0.0098454,0.00501119,0.00436593,0.000543013,-0.00550745,-0.000413291,0.00304524,-0.000120403,0.000144184,-0.000295297,-0.00559601,-0.00128254,0.00122248,6.67339e-05,-0.000397199,0.00553208,-0.00107246,-0.00394239,0.0159851,-0.0144913,-0.00820618,0.00863083,0.0098454,0.00501119,0,0,0,0,0,0,0,0,0,-0.000615604,5.0546e-05,0.000226727,-0.000357024,-0.00036102,-0.000375772,4.6471e-06,9.58787e-05,0.000350416,0.000276404,3.24261e-06,-1.24007e-05
2025,0.00051179,0.00224017,0.0029135,-0.00165739,0.0534403,0.0534403,0.0534403,0.0534403,0.0534403,0.0534403,0.0534403,0.0534403,0.0534403,-0.80344,-0.810477,0.747804,1.3644,0.00224017,0.0029135,-0.00165739,5.22612e-05,0.000685919,-0.00072331,-0.00133323,-0.0039117,0.00325516,0.0534403,0.00055851,-0.00484296,0.000300176,-0.00111695,0.00123983,0.000179268,0.00282818,0.00136296,-0.000425743,-0.00333296,-0.000919777,-0.00202208,0.00153641,-0.000865828,0.000851294,5.22612e-05,0.000685919,-0.00072331,-0.00133323,-0.0039117,0.00325516,0,0,0,0,0,0,0,0,0,-0.000480488,1.62179e-06,-0.000383002,-0.000418943,-0.000309849,0.000392862,-1.02269e-05,-4.37271e-05,0.0003585,0.000413503,-4.58774e-06,1.05146e-05
2026,0.00051179,-0.0045609,-0.00287504,0.00326125,0.021291,0.021291,0.021291,0.021291,0.021291,0.021291,0.021291,0.021291,0.021291,-0.954533,0.423433,-0.978709,1.43119,-0.0045609,-0.00287504,0.00326125,-0.00534547,0.000474541,0.000635244,-0.0137137,-0.00270207,-0.000775118,0.021291,0.00288107,-0.0154518,-0.000382148,0.00168399,-0.000396791,0.000549421,-0.00142965,0.0204095,-0.00117198,0.0023116,0.000195845,-0.000113379,-0.00112055,-0.00169649,-0.00171822,-0.00534547,0.000474541,0.000635244,-0.0137137,-0.00270207,-0.000775118,0,0,0,0,0,0,0,0,0,-0.000320427,1.05491e-05,-0.000164278,-0.00038153,-0.000324989,0.000165202,-5.15571e-05,6.22004e-05,0.000296444,0.000393376,-8.72626e-05,1.05131e-05
2027,0.00051179,-0.0602646,0.115102,-0.0972977,0.0230511,0.0230511,0.0230511,0.0230511,0.0230511,0.0230511,0.0230511,0.0230511,0.0230511,-0.702641,-0.36737,0.0769489,0.79661,-0.0602646,0.115102,-0.0972977,-0.0388848,0.102789,-0.0430735,-0.0397536,0.0107047,0.0962772,0.0230511,2.42291,17.3214,-0.812091,-7.66223,-0.0128818,-0.181909,-3.82697,-17.2482,0.888163,-0.986528,-0.0810634,0.0174077,8.53365,0.415403,3.90686,-0.0388848,0.102789,-0.0430735,-0.0397536,0.0107047,0.0962772,0,0,0,0,0,0,0,0,0,0.000296183,0.00760001,-0.00330931,0.00731287,-0.000655407,-0.00378372,-7.80911e-05,-0.00214684,-1.34483e-05,-0.0095627,0.00144325,-0.00176174
2028,0.00051179,-0.0116615,-0.00947089,-0.0417346,0.109132,0.109132,0.109132,0.109132,0.109132,0.109132,0.109132,0.109132,0.109132,-0.859132,0.586212,-0.228118,1.0648,-0.0116615,-0.00947089,-0.0417346,-0.00915591,-0.00095848,0.00868483,-0.00724907,-0.0121485,-0.00404188,0.109132,-0.277132,1.76519,-0.00877541,0.128994,0.247426,-0.231798,-0.59438,-2.00095,-0.00415831,0.114554,-0.0103604,0.273114,-0.234078,-0.135177,0.363,-0.00915591,-0.00095848,0.00868483,-0.00724907,-0.0121485,-0.00404188,0,0,0,0,0,0,0,0,0,-0.000801034,-0.000927309,-0.000483897,-0.00198776,-0.000252837,0.000386558,0.000447096,-0.000178964,0.000261962,-0.000243375,-4.61252e-05,-0.000191963
2029,0.00051179,0.00710359,0.003658,0.00550698,0.0467447,0.0467447,0.0467447,0.0467447,0.0467447,0.0467447,0.0467447,0.0467447,0.0467447,-0.953255,-0.860555,-0.844105,1.5368,0.00710359,0.003658,0.00550698,-0.00267539,0.000734631,0.00240238,-0.00445041,0.0070277,-0.00120547,0.0467447,0.00183029,-0.00961758,-0.00105496,0.00319648,-0.00199927,0.00146633,-0.00650386,0.00451327,-0.0010705,-0.00505808,-0.000417915,-9.90458e-05,-0.0017964,-0.00163079,0.00109592,-0.00267539,0.000734631,0.00240238,-0.00445041,0.0070277,-0.00120547,0,0,0,0,0,0,0,0,0,-0.000498064,6.39254e-06,0.000323582,-0.000488153,-0.000274325,-0.000326785,-1.69865e-05,-8.71293e-05,0.000265494,0.00052684,0.000153227,-3.56333e-06
2030,0.00051179,-0.0045536,-5.3905e-06,0.00154732,0.121989,0.121989,0.121989,0.121989,0.121989,0.121989,0.121989,0.121989,0.121989,-0.878011,-0.569294,-0.464405,1.14485,-0.0045536,-5.3905e-06,0.00154732,-0.00478876,0.000673234,0.000369359,0.0020827,-0.00323441,-0.00392519,0.121989,-0.00651006,0.138323,-0.00128417,0.0160467,0.0069866,-0.0112952,0.142042,-0.140756,0.0107121,0.00953549,-0.00576255,0.00624531,-0.0255768,-0.0114851,-0.149835,-0.00478876,0.000673234,0.000369359,0.0020827,-0.00323441,-0.00392519,0,0,0,0,0,0,0,0,0,-0.000554435,-4.04392e-05,0.000411198,-0.000429947,-0.000344152,-0.000417307,8.00289e-05,-0.00014171,0.000331581,0.000320688,5.17403e-05,-6.09964e-05
2031,0.00051179,-0.000426765,-0.001574,0.00234428,0.114903,0.114903,0.114903,0.114903,0.114903,0.114903,0.114903,0.114903,0.114903,-0.885097,-0.748097,0.879743,1.45499,-0.000426765,-0.001574,0.00234428,-0.002212,-0.00110961,-0.00206394,0.00247315,0.00231249,0.00495553,0.114903,0.000981048,-0.0029055,1.09747e-05,-0.00136301,0.00148803,0.000439256,-0.000663876,0.00184423,-0.000330599,-0.000648595,-0.000559056,-0.000186444,0.0035856,-0.00121389,-0.00149396,-0.002212,-0.00110961,-0.00206394,0.00247315,0.00231249,0.00495553,0,0,0,0,0,0,0,0,0,-0.000555374,-1.15239e-05,-0.000308168,-0.000397199,-0.000340248,0.000297182,5.34363e-06,-5.07514e-06,0.000327066,0.000380953,2.26094e-05,1.33391e-05
2032,0.00051179,-0.00306574,0.00513121,-0.0139895,0.0528963,0.0528963,0.0528963,0.0528963,0.0528963,0.0528963,0.0528963,0.0528963,0.0528963,-0.947104,0.216386,-0.40441,1.05232,-0.00306574,0.00513121,-0.0139895,-0.00334309,-0.000283939,-0.000473345,0.0106544,-0.0079852,-0.000967484,0.0528963,-0.0258055,0.194376,0.000693209,0.00433068,-0.00483566,-0.0286125,0.0856259,-0.186474,-0.0186702,0.0154598,-0.00673977,-0.0189151,-0.0249217,-0.0170599,-0.0527213,-0.00334309,-0.000283939,-0.000473345,0.0106544,-0.0079852,-0.000967484,0,0,0,0,0,0,0,0,0,-0.000486024,-8.20601e-05,-0.000131803,-0.000436831,-0.000319535,0.000135896,2.36038e-05,-0.000103036,0.000315018,0.000145972,-4.42141e-05,-2.64542e-05
2033,0.00051179,0.0106742,0.00398039,-0.00541722,0.0284793,0.0284793,0.0284793,0.0284793,0.0284793,0.0284793,0.0284793,0.0284793,0.0284793,-0.778479,0.0188472,-0.834943,1.14172,0.0106742,0.00398039,-0.00541722,-0.00749285,-0.000161524,0.00116123,0.00789495,-0.000853105,-0.00375201,0.0284793,0.000304952,-0.00340533,-0.000586502,0.00454801,7.47928e-05,0.000348523,-0.00272142,-0.00734367,0.00402008,-0.000721449,-0.000944271,0.000556898,-0.00780696,0.00144197,0.00758174,-0.00749285,-0.000161524,0.00116123,0.00789495,-0.000853105,-0.00375201,0,0,0,0,0,0,0,0,0,-0.000331193,-3.87285e-05,-1.87152e-05,-0.00030663,-0.00030362,1.12349e-05,5.67862e-05,1.85431e-06,0.000379793,0.000321728,-1.98281e-05,-1.43392e-05
2034,0.00051179,-0.0352645,-0.0105929,0.00260019,0.0511895,0.0511895,0.0511895,0.0511895,0.0511895,0.0511895,0.0511895,0.0511895,0.0511895,-0.801189,0.672722,0.191155,1.06348,-0.0352645,-0.0105929,0.00260019,0.022633,-0.00106318,-0.0273127,0.00221238,-0.0313622,-0.0305488,0.0511895,0.319593,-5.69041,-0.0444468,0.238207,-0.364042,-0.315693,1.63618,6.08971,0.0131298,-0.225634,0.0453134,0.572636,-0.00197966,0.319312,-2.21142,0.022633,-0.00106318,-0.0273127,0.00221238,-0.0313622,-0.0305488,0,0,0,0,0,0,0,0,0,-0.000112079,0.000965365,0.000298398,-0.00346329,-0.000416899,-0.000753498,-0.000669056,-9.63453e-05,0.000225008,3.32289e-05,0.000235857,0.000698047
2035,0.00051179,0.0073149,0.000814373,0.000903152,0.0396675,0.0396675,0.0396675,0.0396675,0.0396675,0.0396675,0.0396675,0.0396675,0.0396675,-0.960333,-0.0879586,0.578262,1.12444,0.0073149,0.000814373,0.000903152,-0.00241993,0.000468703,0.000568734,0.00597503,-0.00201036,0.00192559,0.0396675,0.00523807,-0.051369,-0.00160592,0.0148677,-0.00025492,-0.00542156,0.0406961,0.044309,0.0139161,0.00421742,0.00225072,-0.00152216,-0.0198995,0.00811634,-0.0400771,-0.00241993,0.000468703,0.000568734,0.00597503,-0.00201036,0.00192559,0,0,0,0,0,0,0,0,0,-0.000619553,-2.36992e-05,-6.36233e-05,-0.000200171,-0.000345523,5.22511e-05,6.16659e-05,3.40768e-05,0.000302941,0.000151642,-3.16732e-05,1.24198e-05
2036,0.00051179,0.0113306,-0.00533593,0.00784373,0.0430483,0.0430483,0.0430483,0.0430483,0.0430483,0.0430483,0.0430483,0.0430483,0.0430483,-0.956952,0.0729964,-0.0697747,0.962265,0.0113306,-0.00533593,0.00784373,-0.00315013,-0.00367631,-0.000553928,0.0113726,-0.00703333,-0.00532615,0.0430483,-0.0677749,-0.379479,-0.0188388,-0.122125,-0.28538,0.0562175,0.170623,0.653529,-0.0211555,-0.00898768,0.0026864,0.194284,0.136449,0.0170258,-0.372751,-0.00315013,-0.00367631,-0.000553928,0.0113726,-0.00703333,-0.00532615,0,0,0,0,0,0,0,0,0,-0.000569448,-0.000275,-8.41592e-05,0.000213476,-0.000334287,-0.000140992,3.07104e-05,-9.01448e-05,0.000362478,0.00034316,4.66754e-05,0.000138123
2037,0.00051179,0.00960004,-0.00522912,0.00239296,0.113305,0.113305,0.113305,0.113305,0.113305,0.113305,0.113305,0.113305,0.113305,-0.863305,0.278476,0.293081,0.953279,0.00960004,-0.00522912,0.00239296,0.00458535,0.00576919,-0.00186502,0.00427187,-0.0124067,0.00913931,0.113305,0.0411359,-0.638515,0.0109112,-0.153584,0.0195396,-0.0492303,0.308174,0.609375,0.0329373,-0.152136,-0.026017,-0.0647081,0.310949,0.0407291,-0.245858,0.00458535,0.00576919,-0.00186502,0.00427187,-0.0124067,0.00913931,0,0,0,0,0,0,0,0,0,-0.000497423,7.53769e-05,0.000287703,-0.000622616,-0.000313843,-0.0001209,3.28165e-05,-0.000273442,0.000290222,0.000111663,-0.000110795,9.61127e-05
2038,0.00051179,-0.000955813,-0.000642927,-0.00436242,0.102863,0.102863,0.102863,0.102863,0.102863,0.102863,0.102863,0.102863,0.102863,-0.877007,0.0570867,-0.897137,1.25589,-0.000955813,-0.000642927,-0.00436242,-0.00854607,-0.000889501,0.00261289,-0.00276465,-0.00150385,-0.00173354,0.102863,0.0006264,0.00257625,-0.000686608,0.00322387,0.000104895,0.00105901,-0.00279656,-0.00172533,-0.000789108,0.000506729,-0.000137524,0.000456993,-0.00308767,-0.000771087,0.00670199,-0.00854607,-0.000889501,0.00261289,-0.00276465,-0.00150385,-0.00173354,0,0,0,0,0,0,0,0,0,-0.000309534,-2.34698e-05,-3.19979e-05,-0.000308114,-0.000304664,1.62369e-05,-1.64026e-06,1.11078e-05,0.000346027,0.000344833,-2.75216e-05,3.60539e-06
2039,0.00051179,0.0226348,-0.0178145,0.0125446,0.0651471,0.0651471,0.0651471,0.0651471,0.0651471,0.0651471,0.0651471,0.0651471,0.0651471,-0.934853,-0.21227,-0.269985,0.995942,0.0226348,-0.0178145,0.0125446,-0.00858012,0.00150021,-0.0045106,-0.00116339,-0.00477575,-0.000777882,0.0651471,-0.0870455,0.319871,0.0170539,-0.0645566,-0.09035,-0.055845,-0.136944,-0.252155,-0.0412063,0.0164563,0.0115303,-0.0906985,0.0659148,-0.0121452,0.215098,-0.00858012,0.00150021,-0.0045106,-0.00116339,-0.00477575,-0.000777882,0,0,0,0,0,0,0,0,0,-0.000549026,-0.000303992,0.000174374,-0.00055388,-0.000310982,1.11676e-05,-3.77118e-05,6.68652e-05,0.000330016,-4.96763e-05,6.80317e-07,0.000109521
2040,0.00051179,0.00717658,-0.00544144,0.00304546,0.0224632,0.0224632,0.0224632,0.0224632,0.0224632,0.0224632,0.0224632,0.0224632,0.0224632,-0.772463,-0.920435,0.920169,1.51348,0.00717658,-0.00544144,0.00304546,0.00256765,-0.00395885,0.00240911,0.00509411,-0.00272107,0.00717688,0.0224632,0.000818446,-0.00791889,-0.000392906,0.00375795,0.000604662,0.000191387,0.000358034,0.000137643,-0.000963228,-0.000859664,-0.000251423,-0.00279453,0.00254316,-0.000778992,-0.000608965,0.00256765,-0.00395885,0.00240911,0.00509411,-0.00272107,0.00717688,0,0,0,0,0,0,0,0,0,-0.000518888,8.74866e-07,-0.000317638,-0.000460738,-0.000305438,0.000274121,4.5988e-06,-4.50649e-05,0.000373922,0.000486743,1.53399e-05,1.59338e-05
2041,0.00051179,-0.00320806,0.00395451,-0.00447846,0.0354653,0.0354653,0.0354653,0.0354653,0.0354653,0.0354653,0.0354653,0.0354653,0.0354653,-0.785465,0.0789698,0.410482,0.889768,-0.00320806,0.00395451,-0.00447846,-6.72508e-06,0.000688966,0.00319244,0.00394313,-0.0036118,-0.00552798,0.0354653,0.000493839,-0.0221298,-8.63522e-06,-0.00060292,0.000389418,-0.00384231,0.0784469,0.0249484,-0.0084015,-0.0298096,-0.00167191,-0.00714324,0.026458,0.00695907,-0.0668252,-6.72508e-06,0.000688966,0.00319244,0.00394313,-0.0036118,-0.00552798,0,0,0,0,0,0,0,0,0,-0.000581942,5.36652e-06,7.58961e-05,-0.000290697,-0.000344211,-6.90928e-05,-1.93609e-05,-2.30711e-05,0.000328824,0.000284199,-2.9766e-05,1.00864e-05
2042,0.00051179,-0.00629639,0.00421383,0.0045742,0.00371863,0.00371863,0.00371863,0.00371863,0.00371863,0.00371863,0.00371863,0.00371863,0.00371863,-0.996281,0.711123,0.882058,1.50874,-0.00629639,0.00421383,0.0045742,-0.00830735,-0.00406257,-0.00176273,0.00451307,-0.00977297,0.00555134,0.00371863,0.0010388,-0.000645933,0.000694849,-0.00674123,-0.00114693,0.000356451,0.00577883,0.00808925,0.000933779,-0.00375077,-0.000578281,-0.000664483,0.00627817,-0.00267742,-0.00968855,-0.00830735,-0.00406257,-0.00176273,0.00451307,-0.00977297,0.00555134,0,0,0,0,0,0,0,0,0,-0.000590451,-3.75568e-05,0.000240805,-0.000393457,-0.000301862,-0.000274483,2.60202e-05,-6.34557e-06,0.000256389,0.000379394,-9.71669e-05,1.31555e-05
2043,0.00051179,5.99921e-05,0.00853786,-0.00333615,0.0748987,0.0748987,0.0748987,0.0748987,0.0748987,0.0748987,0.0748987,0.0748987,0.0748987,-0.925101,-0.345955,-0.539867,1.12559,5.99921e-05,0.00853786,-0.00333615,-0.00483892,0.00153204,-0.00110953,-0.00739557,0.00203378,-0.00120542,0.0748987,-0.00390594,0.0687741,-0.00182765,0.00720797,0.000824663,-0.00787584,0.059615,-0.0696587,0.00544511,-0.00217863,-0.00511707,-0.00314535,-0.0135672,-0.00497552,-0.0531335,-0.00483892,0.00153204,-0.00110953,-0.00739557,0.00203378,-0.00120542,0,0,0,0,0,0,0,0,0,-0.000455081,-2.42517e-05,0.000213761,-0.000333869,-0.000312829,-0.000216717,9.72029e-06,-5.48675e-05,0.000331402,0.000244016,2.40345e-05,-1.14321e-05
2044,0.00051179,0.00152635,-0.0018064,-0.00299307,0.124258,0.124258,0.124258,0.124258,0.124258,0.124258,0.124258,0.124258,0.124258,-0.875742,0.404175,-0.843154,1.28109,0.00152635,-0.0018064,-0.00299307,-0.00311536,-0.000533156,0.0011696,-0.000768609,-0.000324005,0.000106531,0.124258,9.80049e-05,0.00592248,-0.000847988,0.00454229,0.000238337,0.000857718,-0.00467123,-0.00768717,-0.000683622,-0.000740375,-0.000117945,0.000376695,-0.00199552,-0.000508148,0.0072876,-0.00311536,-0.000533156,0.0011696,-0.000768609,-0.000324005,0.000106531,0,0,0,0,0,0,0,0,0,-0.000366434,-9.46614e-06,-0.000190932,-0.000360981,-0.000303352,0.000177121,-1.64054e-06,6.01592e-05,0.000329353,0.000381254,-6.45787e-05,3.61253e-06
2045,0.00051179,-0.000531966,-0.000198461,-0.0109076,0.0178616,0.0178616,0.0178616,0.0178616,0.0178616,0.0178616,0.0178616,0.0178616,0.0178616,-0.852888,-0.832937,-0.982138,1.5446,-0.000531966,-0.000198461,-0.0109076,-0.000649803,0.000420108,0.00242232,-0.00487167,-0.0020152,0.00468179,0.0178616,0.00136943,-0.0110652,-0.000468634,0.00334312,0.000171619,0.000337932,0.00161096,0.0114255,-0.000686975,-0.00106646,-1.01076e-05,0.000272965,-0.0020782,-0.00112391,0.00902367,-0.000649803,0.000420108,0.00242232,-0.00487167,-0.0020152,0.00468179,0,0,0,0,0,0,0,0,0,-0.000423871,5.07637e-06,0.000278667,-0.000472297,-0.000287646,-0.000279152,-2.6315e-05,-0.000135317,0.000319436,0.000499899,0.000115064,1.92676e-05
2046,0.00051179,-0.00299138,0.000499412,-0.0133384,0.112934,0.112934,0.112934,0.112934,0.112934,0.112934,0.112934,0.112934,0.112934,-0.862934,-0.414337,0.19993,0.977907,-0.00299138,0.000499412,-0.0133384,-0.00873658,-0.00816683,0.0143669,0.00229906,-0.00577506,0.00187918,0.112934,0.332271,-0.67832,-0.0407188,0.0343423,-0.0849431,-0.203697,-1.30115,0.766254,0.0696615,0.121579,0.0560498,0.0220461,-0.156421,0.0648338,1.29244,-0.00873658,-0.00816683,0.0143669,0.00229906,-0.00577506,0.00187918,0,0,0,0,0,0,0,0,0,-0.000351734,0.00108435,-0.000631543,-0.00138851,-0.000398898,0.000142686,-0.000173513,0.000371759,0.000290796,-0.000504791,0.000130988,-0.000199752
2047,0.00051179,-0.000959513,-0.00113538,-0.00633533,0.0739897,0.0739897,0.0739897,0.0739897,0.0739897,0.0739897,0.0739897,0.0739897,0.0739897,-0.869331,-0.315726,-0.92601,1.30878,-0.000959513,-0.00113538,-0.00633533,-0.00504505,0.000732957,0.00333315,-0.00451849,-0.000920239,-0.0026315,0.0739897,0.00106235,-0.00182461,-0.000533722,0.00283608,0.000110103,0.00109928,-0.00018837,0.00267402,-0.00105538,0.000662261,-4.87817e-05,-0.000216502,-0.00236296,-0.0010558,0.0067402,-0.00504505,0.000732957,0.00333315,-0.00451849,-0.000920239,-0.0026315,0,0,0,0,0,0,0,0,0,-0.000325345,-4.63211e-06,0.000157303,-0.000324968,-0.000302428,-0.000155311,-1.2588e-05,-3.23794e-05,0.000350989,0.000369292,2.26892e-05,-3.1551e-06
